!Keysight Technologies,N5247B,US58420632,A.17.35.14
!Date: Friday, November 22, 2024 16:01:38
!Correction: S11(C  2-Port  ) 
!S21(C  2-Port  ) 
!S12(C  2-Port  ) 
!S22(C  2-Port  ) 
!S2P File: Measurements: S11, S21, S12, S22:
# Hz S  dB   R 50
10000000 -20.405844 -4.3232856 21.225088 -176.29582 -63.460609 -119.46434 -22.54867 57.781433
20000000 -20.526138 -7.6237097 21.55895 -178.14777 -63.026802 124.09358 -19.881617 27.989557
30000000 -20.443485 -7.8878493 21.662745 -179.56482 -74.107666 -67.762451 -19.237185 17.461279
40000000 -20.520838 -9.0227242 21.711843 179.24362 -68.60569 61.536522 -18.953573 11.129938
50000000 -20.477417 -10.689775 21.732748 178.2141 -72.443062 83.658371 -18.757111 6.1112037
60000000 -20.507256 -12.965613 21.733889 177.33334 -78.991409 -66.693932 -18.656914 1.2438111
70000000 -20.528103 -14.339133 21.734001 176.44476 -90.64447 -8.6388245 -18.617666 -2.5765932
80000000 -20.569559 -16.136026 21.722094 175.61798 -72.828423 22.289074 -18.552122 -5.8854165
90000000 -20.632215 -18.003244 21.704823 174.82542 -70.658928 50.549614 -18.503576 -9.0177059
100000000 -20.682411 -19.474051 21.682201 174.09448 -81.535217 87.413139 -18.513708 -11.546062
110000000 -20.701632 -21.61047 21.658146 173.3477 -74.384109 129.04073 -18.454151 -14.501704
120000000 -20.831633 -23.464891 21.625008 172.63248 -76.637794 68.976791 -18.524832 -17.069445
130000000 -20.813587 -24.891668 21.584259 171.99471 -71.284935 17.323782 -18.561346 -19.449057
140000000 -20.83802 -27.399025 21.556719 171.39703 -75.886528 58.22855 -18.665592 -21.871937
150000000 -20.813005 -28.681593 21.525162 170.76303 -67.394493 21.34403 -18.620459 -23.7178
160000000 -20.937061 -30.459936 21.491329 170.16721 -73.042717 62.715237 -18.75493 -25.908688
170000000 -20.921991 -32.035084 21.454073 169.61632 -72.153412 32.900017 -18.773146 -28.446991
180000000 -20.973377 -32.996231 21.414917 169.06384 -71.470337 50.994568 -18.859144 -30.185642
190000000 -21.08462 -34.174736 21.376381 168.52116 -78.398674 29.764418 -18.965477 -32.421673
200000000 -21.128168 -35.506683 21.339211 168.02094 -69.678375 44.450108 -18.9874 -34.172188
210000000 -21.214842 -36.489208 21.297871 167.53056 -73.591377 58.251987 -19.112913 -35.734547
220000000 -21.333567 -37.430157 21.258366 167.05836 -76.678963 33.763157 -19.154612 -37.377663
230000000 -21.458921 -39.17244 21.216133 166.58975 -72.078041 60.050354 -19.188839 -39.194363
240000000 -21.571587 -40.479378 21.180391 166.16846 -71.924164 52.153389 -19.355568 -40.353035
250000000 -21.687084 -42.206936 21.142 165.75914 -79.537506 83.335472 -19.454353 -42.362518
260000000 -21.697084 -42.384525 21.096268 165.35681 -68.73317 28.537912 -19.440403 -43.332253
270000000 -21.751953 -43.86702 21.063553 165.00485 -74.980995 51.978233 -19.565767 -44.567963
280000000 -21.739689 -44.50779 21.033152 164.62099 -68.85424 60.934036 -19.664648 -45.943638
290000000 -21.733059 -45.700497 20.999327 164.25119 -67.517776 39.95306 -19.738945 -47.350346
300000000 -21.773363 -46.139725 20.96973 163.89574 -68.430473 57.137539 -19.776192 -48.62236
310000000 -21.86536 -46.872738 20.93819 163.53978 -65.973 41.644875 -19.871962 -49.897018
320000000 -21.939201 -47.066628 20.909695 163.2095 -67.497124 53.102604 -19.98694 -50.52784
330000000 -22.04491 -47.270771 20.881826 162.87691 -67.21312 49.540924 -20.039011 -51.617764
340000000 -22.106382 -47.419418 20.855629 162.54739 -69.43972 45.099491 -20.115963 -52.545052
350000000 -22.168751 -48.136208 20.828787 162.22063 -75.546745 39.039162 -20.081116 -53.54987
360000000 -22.2945 -48.312321 20.808241 161.89456 -68.167412 47.45628 -20.20587 -54.345943
370000000 -22.323254 -49.008373 20.785019 161.57553 -67.717529 39.533424 -20.177 -54.975719
380000000 -22.396961 -49.732487 20.763586 161.23563 -69.109062 45.715153 -20.263231 -55.639915
390000000 -22.40243 -49.963753 20.741522 160.91687 -67.546204 48.952808 -20.251596 -56.667191
400000000 -22.353306 -50.069706 20.725336 160.62236 -71.887802 59.206539 -20.305273 -57.655014
410000000 -22.217201 -50.43222 20.714617 160.31517 -69.304222 68.789879 -20.311914 -57.76741
420000000 -22.168837 -50.101978 20.698698 159.94902 -74.151802 -11.328924 -20.32065 -59.456005
430000000 -22.152933 -51.110291 20.684278 159.60863 -66.098145 58.823818 -20.323393 -60.821072
440000000 -22.091389 -50.812344 20.673172 159.25764 -66.651894 54.611855 -20.329178 -61.541119
450000000 -21.964268 -51.141335 20.660412 158.86963 -75.038933 29.197393 -20.231972 -62.146267
460000000 -21.924778 -50.629852 20.654253 158.48499 -66.622391 33.704205 -20.251867 -63.295227
470000000 -21.899977 -51.153587 20.639462 158.06763 -70.99308 30.32773 -20.287136 -64.608238
480000000 -21.828468 -51.495842 20.625196 157.65387 -67.947884 41.825294 -20.252775 -65.663536
490000000 -21.792404 -52.283413 20.605856 157.20317 -67.315201 36.165977 -20.299965 -66.918129
500000000 -21.726458 -52.91753 20.587528 156.77939 -70.833015 41.208061 -20.326937 -67.757889
510000000 -21.612141 -54.490753 20.562769 156.30621 -66.534035 41.527229 -20.33676 -70.037979
520000000 -21.496643 -55.649342 20.53513 155.87325 -66.962402 42.504795 -20.456247 -71.399979
530000000 -21.31732 -56.891605 20.503761 155.43575 -70.938484 42.105839 -20.460489 -72.176506
540000000 -21.208544 -58.553097 20.475115 155.01405 -66.894142 60.148994 -20.61824 -73.976097
550000000 -21.08074 -59.892303 20.440142 154.57854 -67.000679 54.597038 -20.768612 -74.911423
560000000 -20.940825 -61.435394 20.401957 154.16255 -67.246216 42.401531 -20.853903 -76.396011
570000000 -20.903982 -63.079563 20.361456 153.75572 -67.939224 41.17794 -21.033848 -77.238228
580000000 -20.901436 -64.731186 20.318279 153.36646 -68.412148 46.315834 -21.243214 -78.348778
590000000 -20.928621 -66.827637 20.274324 153.01454 -65.636429 30.720541 -21.269295 -79.457336
600000000 -21.10453 -68.715576 20.223675 152.68265 -67.078911 23.853197 -21.551003 -79.987427
610000000 -21.290535 -70.415672 20.175528 152.39925 -70.930176 24.195202 -21.655441 -80.068527
620000000 -21.440008 -72.451118 20.126837 152.13423 -69.812378 30.676392 -21.791378 -80.708885
630000000 -21.653357 -74.515884 20.083796 151.89584 -67.454468 36.21896 -21.944874 -80.764931
640000000 -21.867901 -76.556396 20.03978 151.71404 -66.057739 56.958263 -22.156145 -81.946838
650000000 -22.048367 -78.064491 19.996063 151.51959 -66.973709 29.112804 -22.22698 -81.694221
660000000 -22.267099 -79.73642 19.95569 151.35889 -69.696091 38.769951 -22.318911 -81.866615
670000000 -22.486938 -80.424385 19.923744 151.18765 -65.460648 53.981586 -22.61179 -81.622711
680000000 -22.631634 -81.416718 19.89505 151.05368 -66.781906 31.620102 -22.59551 -82.294945
690000000 -22.933969 -81.478325 19.865404 150.91353 -67.395744 74.17366 -22.655783 -81.290421
700000000 -23.126276 -82.113045 19.8388 150.76411 -67.755707 30.367653 -22.840904 -82.186562
710000000 -23.416334 -82.294228 19.815304 150.62506 -67.593559 30.854137 -22.919933 -81.788414
720000000 -23.615942 -81.991058 19.793694 150.48026 -68.100945 57.54776 -23.025093 -81.745949
730000000 -23.996813 -82.094803 19.772163 150.34798 -67.169426 38.465984 -23.107759 -82.240448
740000000 -24.229187 -82.467636 19.755892 150.19994 -68.742813 70.829567 -23.168993 -81.739006
750000000 -24.543116 -82.593727 19.739216 150.05699 -69.649376 61.444908 -23.228163 -81.669525
760000000 -24.806286 -82.421379 19.726847 149.90541 -68.188179 44.29208 -23.343294 -81.326607
770000000 -25.019005 -82.384087 19.711781 149.7473 -67.025436 38.617428 -23.376734 -80.873993
780000000 -25.209837 -83.109932 19.70215 149.58376 -70.579193 35.102745 -23.476025 -81.178902
790000000 -25.419342 -82.967422 19.689726 149.41766 -72.125458 40.092537 -23.532061 -80.850494
800000000 -25.547293 -82.492599 19.67911 149.25531 -71.278404 40.800785 -23.647459 -80.682747
810000000 -25.640987 -81.511597 19.67038 149.09024 -67.634239 67.221481 -23.580969 -79.941269
820000000 -25.753786 -80.762367 19.66326 148.90276 -67.955841 54.122505 -23.62196 -79.818352
830000000 -25.863754 -79.894485 19.654186 148.72844 -68.221413 74.309753 -23.690556 -79.695625
840000000 -26.060953 -78.453674 19.647985 148.54941 -66.971306 54.176743 -23.783607 -79.830124
850000000 -26.180243 -77.313492 19.641214 148.36642 -70.222794 45.652256 -23.801064 -79.375381
860000000 -26.38781 -76.334389 19.63588 148.17282 -69.613289 60.671558 -23.861794 -79.078499
870000000 -26.569952 -75.000542 19.629227 147.98683 -66.11499 46.979565 -23.769844 -78.311501
880000000 -26.716669 -74.445816 19.626007 147.79131 -68.128822 28.960266 -23.788103 -78.677582
890000000 -26.864037 -73.988403 19.620541 147.57869 -66.581017 35.735935 -23.906101 -78.151268
900000000 -27.07296 -73.37529 19.61585 147.37244 -70.843475 55.62833 -23.954176 -77.732803
910000000 -27.092152 -72.888168 19.610956 147.16156 -67.038483 54.607822 -24.001095 -77.521202
920000000 -27.186403 -72.14373 19.604681 146.96486 -71.63279 45.162571 -24.071426 -77.172966
930000000 -27.173321 -71.676643 19.601917 146.75604 -66.875191 52.536556 -24.035767 -76.869751
940000000 -27.130686 -70.27388 19.599846 146.55019 -69.812431 53.795757 -24.015673 -76.178459
950000000 -27.116713 -69.345352 19.596172 146.34413 -68.195618 66.637817 -24.054552 -76.491478
960000000 -27.085602 -68.362717 19.596521 146.1299 -67.783302 85.72496 -24.119856 -76.12281
970000000 -27.089996 -65.908981 19.592131 145.89499 -64.428856 59.875145 -24.211163 -75.00692
980000000 -27.037167 -64.538345 19.590826 145.69304 -65.567436 56.983334 -24.06469 -74.775322
990000000 -27.091578 -63.180588 19.589054 145.46861 -68.420937 57.744183 -24.170055 -74.214798
1000000000 -27.116549 -61.78611 19.588779 145.23813 -66.045258 52.837368 -24.11157 -74.204842
1010000000 -27.200029 -60.184738 19.586037 145.01787 -66.52475 79.415047 -24.15608 -73.373718
1020000000 -27.262056 -59.92659 19.582338 144.78117 -67.373817 42.191563 -24.214188 -73.511681
1030000000 -27.226015 -59.02515 19.581932 144.54955 -65.776871 70.254318 -24.141075 -72.812164
1040000000 -27.165806 -58.401268 19.580463 144.3228 -66.00412 79.476555 -24.155704 -72.032333
1050000000 -27.148342 -57.907436 19.577963 144.09711 -65.680016 67.383308 -24.142973 -72.49395
1060000000 -27.011774 -57.1852 19.577269 143.86752 -67.705185 62.60083 -24.180857 -71.245392
1070000000 -26.94054 -56.512493 19.577158 143.63551 -64.988823 73.916245 -24.1451 -70.885117
1080000000 -26.731939 -55.528946 19.576237 143.39966 -65.00412 58.566559 -24.13588 -70.265869
1090000000 -26.623077 -54.298336 19.577002 143.16684 -65.627518 81.884369 -24.178757 -70.539063
1100000000 -26.416927 -53.430435 19.577843 142.92799 -65.255745 60.091438 -24.145517 -70.196671
1110000000 -26.355724 -52.143482 19.575733 142.67422 -67.24707 49.801498 -24.189512 -70.447678
1120000000 -26.229168 -50.665184 19.57522 142.44827 -64.319412 69.917816 -24.10153 -68.784233
1130000000 -26.197901 -49.594925 19.574986 142.2045 -64.04792 66.735352 -24.125521 -68.83033
1140000000 -26.127947 -48.439312 19.575418 141.96111 -63.881016 74.632576 -24.035183 -68.276581
1150000000 -26.054955 -47.656704 19.573759 141.71411 -63.014858 88.041893 -24.068913 -68.166039
1160000000 -26.010954 -46.784 19.5746 141.47339 -65.290222 75.323631 -24.052479 -67.279984
1170000000 -25.938553 -46.301182 19.574081 141.22879 -65.179123 66.592964 -24.021412 -66.742073
1180000000 -25.830828 -46.165199 19.575888 140.97919 -65.303627 78.174202 -24.094141 -66.982414
1190000000 -25.657072 -45.53141 19.575632 140.72914 -62.246803 78.076645 -24.03544 -65.727737
1200000000 -25.495626 -45.976669 19.57642 140.48543 -64.936043 60.919327 -23.994019 -65.335182
1210000000 -25.295652 -45.131767 19.577465 140.24023 -63.028469 70.717659 -23.959558 -65.280807
1220000000 -25.195742 -44.893387 19.57896 139.97705 -64.53904 48.47998 -23.933292 -64.945892
1230000000 -24.937807 -43.645351 19.579088 139.73204 -63.411053 84.623131 -23.851316 -64.212845
1240000000 -24.796761 -42.749657 19.579975 139.48967 -65.505333 69.878494 -23.920975 -63.596581
1250000000 -24.644823 -42.255573 19.579849 139.2296 -62.937405 84.972389 -23.843845 -63.625153
1260000000 -24.520571 -41.275188 19.581465 138.98016 -63.567486 81.103806 -23.902794 -63.110821
1270000000 -24.429796 -40.376137 19.581524 138.7253 -63.104321 70.127144 -23.801815 -62.359875
1280000000 -24.351858 -39.85815 19.582003 138.46542 -63.001602 73.631981 -23.772795 -61.760395
1290000000 -24.217806 -39.285892 19.583757 138.20326 -63.834415 70.601822 -23.775799 -61.79126
1300000000 -24.138496 -39.205643 19.584471 137.94897 -63.351608 76.989746 -23.703747 -61.127243
1310000000 -24.017874 -38.915112 19.584644 137.68941 -62.903004 78.089027 -23.674578 -60.885277
1320000000 -23.882324 -39.155411 19.585657 137.42902 -62.695313 69.896713 -23.662199 -60.569088
1330000000 -23.732014 -38.921467 19.587023 137.17273 -63.3988 70.413078 -23.639952 -59.701019
1340000000 -23.570017 -38.647926 19.58774 136.91193 -63.731781 77.542664 -23.620308 -59.683369
1350000000 -23.361526 -38.431477 19.59025 136.64838 -64.877182 90.647064 -23.489878 -59.246162
1360000000 -23.195967 -38.24752 19.591959 136.39476 -62.347454 83.941978 -23.478136 -58.617027
1370000000 -23.039217 -37.644455 19.5923 136.13701 -63.583683 87.763687 -23.438864 -58.638649
1380000000 -22.89394 -36.972721 19.594126 135.86841 -62.093533 74.197594 -23.443529 -57.815449
1390000000 -22.74445 -36.207775 19.595493 135.60262 -61.265057 79.303017 -23.410666 -57.593105
1400000000 -22.641222 -35.967587 19.597752 135.33846 -62.564106 74.893578 -23.327646 -57.296997
1410000000 -22.533291 -35.497379 19.598465 135.07335 -62.309708 71.857788 -23.299242 -56.654968
1420000000 -22.462954 -35.154186 19.6 134.79726 -62.878231 78.301208 -23.278954 -56.375294
1430000000 -22.375652 -35.097218 19.599911 134.52644 -61.665325 76.160759 -23.27766 -55.721142
1440000000 -22.250288 -34.860092 19.601873 134.26007 -62.509335 79.205048 -23.189116 -55.302841
1450000000 -22.1327 -35.116215 19.603462 133.99393 -59.947586 82.171501 -23.11097 -54.87286
1460000000 -22.017866 -35.112167 19.6047 133.72641 -59.863724 84.873199 -23.070761 -54.453136
1470000000 -21.864372 -35.025513 19.606243 133.46611 -60.676304 78.051964 -23.060043 -54.519604
1480000000 -21.703854 -34.949715 19.609739 133.19815 -61.53968 70.046844 -23.046078 -53.397564
1490000000 -21.560635 -34.868599 19.612103 132.92599 -61.475403 84.808388 -22.960772 -53.522358
1500000000 -21.382187 -34.524437 19.614607 132.65724 -60.863651 73.049576 -22.952106 -53.019749
1510000000 -21.246159 -34.2365 19.615164 132.37866 -60.981182 75.444687 -22.897594 -52.385624
1520000000 -21.133064 -33.957737 19.615728 132.09961 -62.075169 76.287537 -22.87141 -52.304771
1530000000 -21.021128 -33.508869 19.618034 131.82222 -61.200195 78.035469 -22.761826 -51.853973
1540000000 -20.905415 -33.194996 19.619789 131.5515 -60.452595 73.978668 -22.754063 -51.402046
1550000000 -20.839647 -33.058105 19.621462 131.27402 -59.932671 76.436165 -22.702772 -51.07584
1560000000 -20.743412 -32.912857 19.622011 131.007 -60.370178 77.036697 -22.648869 -50.50745
1570000000 -20.662338 -32.8517 19.622656 130.72839 -60.410145 73.694366 -22.607073 -50.222145
1580000000 -20.564459 -32.868176 19.625723 130.44565 -59.527843 78.957581 -22.561388 -49.677933
1590000000 -20.463633 -33.000034 19.626526 130.16861 -59.831642 80.116531 -22.465981 -49.072872
1600000000 -20.337336 -33.051735 19.629755 129.89503 -59.580273 76.995293 -22.450508 -48.958641
1610000000 -20.200176 -33.141796 19.63143 129.62199 -60.360275 81.741478 -22.371933 -49.153072
1620000000 -20.080305 -33.089558 19.633345 129.34125 -60.053722 80.820274 -22.302877 -48.528641
1630000000 -19.93804 -32.971611 19.636175 129.06087 -59.393654 83.641602 -22.274527 -47.920048
1640000000 -19.822582 -32.761635 19.637821 128.77736 -60.731911 71.183769 -22.322124 -47.743294
1650000000 -19.705591 -32.512833 19.639698 128.50249 -59.60257 78.583893 -22.178791 -46.871445
1660000000 -19.617147 -32.23476 19.640966 128.21312 -60.191456 76.90596 -22.126247 -46.554337
1670000000 -19.516603 -32.058308 19.642712 127.94078 -59.78941 81.84697 -22.080175 -46.543652
1680000000 -19.45257 -31.881907 19.645281 127.6559 -58.704792 72.464333 -22.041328 -45.639534
1690000000 -19.374996 -31.854753 19.645462 127.36593 -59.634903 78.411201 -22.025528 -45.854729
1700000000 -19.312223 -31.841379 19.646801 127.08773 -59.37265 81.329445 -21.945641 -45.220345
1710000000 -19.222733 -31.902714 19.648241 126.80994 -58.140701 78.165367 -21.881523 -44.864891
1720000000 -19.144455 -32.14151 19.650589 126.52185 -58.929996 76.628761 -21.857115 -44.587067
1730000000 -19.035944 -32.230953 19.652258 126.24221 -58.879013 73.325531 -21.792551 -44.361244
1740000000 -18.937332 -32.335613 19.654097 125.96127 -58.324688 77.399559 -21.764915 -43.74408
1750000000 -18.827562 -32.340767 19.655075 125.67709 -58.431488 77.535767 -21.704731 -43.829342
1760000000 -18.711094 -32.241699 19.658457 125.39453 -58.542305 81.672256 -21.643211 -43.109615
1770000000 -18.617672 -32.203041 19.659437 125.10739 -58.560204 78.362068 -21.592205 -43.215931
1780000000 -18.531229 -32.006874 19.661633 124.8353 -57.262909 72.307098 -21.54991 -42.635098
1790000000 -18.454977 -31.833158 19.664387 124.5473 -57.726154 75.014771 -21.51285 -42.060879
1800000000 -18.3522 -31.691437 19.66625 124.25535 -57.628967 67.803337 -21.442167 -41.814125
1810000000 -18.296587 -31.701155 19.667728 123.97339 -58.442486 73.516571 -21.408157 -41.62476
1820000000 -18.237873 -31.615393 19.669285 123.67746 -57.634254 73.83625 -21.352306 -41.224957
1830000000 -18.172787 -31.605745 19.67079 123.39652 -57.744343 80.376274 -21.339544 -40.727013
1840000000 -18.110664 -31.731659 19.67255 123.10925 -57.411579 77.49659 -21.255838 -40.393448
1850000000 -18.042791 -31.933996 19.674332 122.81567 -57.376106 74.560226 -21.230597 -40.412411
1860000000 -17.958174 -32.10516 19.676256 122.53587 -58.231262 77.687744 -21.17909 -39.646378
1870000000 -17.88542 -32.21154 19.677832 122.24763 -57.759804 73.34491 -21.09292 -39.934555
1880000000 -17.782623 -32.320602 19.680746 121.95776 -57.066597 73.552979 -21.098589 -39.101715
1890000000 -17.695753 -32.298939 19.681551 121.68279 -57.246635 70.123833 -21.044163 -38.923946
1900000000 -17.61079 -32.235363 19.684734 121.38696 -57.150803 68.764862 -20.990593 -38.268925
1910000000 -17.533339 -32.158298 19.685982 121.09726 -56.921085 74.443794 -20.918409 -38.154396
1920000000 -17.460279 -32.219521 19.688501 120.8125 -57.960487 69.876366 -20.858421 -37.799286
1930000000 -17.396297 -32.11446 19.689196 120.51391 -56.694935 71.395576 -20.846552 -37.636829
1940000000 -17.347672 -32.010193 19.689661 120.22425 -57.31102 70.780617 -20.806498 -37.028915
1950000000 -17.288769 -32.122322 19.691107 119.93365 -55.784863 68.064095 -20.767813 -36.708401
1960000000 -17.240967 -32.183937 19.692802 119.6443 -56.459007 67.335075 -20.701641 -36.946236
1970000000 -17.192125 -32.296429 19.693752 119.34885 -56.072685 75.216431 -20.627779 -36.460312
1980000000 -17.124796 -32.338387 19.695623 119.05249 -56.831375 68.290131 -20.584381 -36.300743
1990000000 -17.085354 -32.607426 19.696247 118.77691 -55.546623 74.184151 -20.582546 -35.891739
2000000000 -17.009949 -32.615173 19.698879 118.48175 -55.58152 64.107468 -20.553341 -35.360115
2010000000 -16.912832 -32.845882 19.701254 118.18575 -57.030205 70.551727 -20.432695 -35.231941
2020000000 -16.830854 -32.839027 19.703606 117.88911 -55.630188 69.060043 -20.421595 -34.789818
2030000000 -16.777006 -32.957657 19.704424 117.5925 -56.447277 72.380943 -20.346872 -34.463726
2040000000 -16.712091 -33.030041 19.705759 117.30078 -56.716942 70.522125 -20.303997 -33.97628
2050000000 -16.634666 -32.99522 19.70837 117.0022 -56.038101 69.032707 -20.255304 -34.136959
2060000000 -16.576435 -33.007526 19.708643 116.70877 -55.638535 73.489174 -20.207773 -33.612537
2070000000 -16.534245 -33.011742 19.708672 116.41466 -55.717819 67.670868 -20.154964 -33.491238
2080000000 -16.497694 -33.076046 19.711948 116.11774 -55.318142 68.281105 -20.074135 -33.022953
2090000000 -16.437729 -33.137379 19.712727 115.83089 -56.313065 69.823471 -20.090189 -32.624657
2100000000 -16.402414 -33.349304 19.713276 115.52504 -56.482132 72.21656 -19.995234 -32.202557
2110000000 -16.34985 -33.429279 19.715494 115.23339 -55.946285 72.829308 -19.975464 -32.087273
2120000000 -16.309189 -33.70834 19.717051 114.93773 -56.162338 73.788261 -19.917164 -32.155025
2130000000 -16.233709 -33.828621 19.718786 114.64475 -55.528862 65.244774 -19.888893 -31.575508
2140000000 -16.178617 -33.964733 19.720633 114.34857 -55.856377 69.309258 -19.882553 -31.060856
2150000000 -16.117887 -34.128986 19.722589 114.05116 -55.276077 62.198898 -19.810072 -30.976032
2160000000 -16.049683 -34.094234 19.724073 113.75473 -55.456512 66.707687 -19.759745 -30.603462
2170000000 -15.986971 -34.107708 19.724957 113.46375 -55.657001 66.615486 -19.641108 -30.346312
2180000000 -15.942793 -34.182487 19.72724 113.16907 -54.875271 65.090401 -19.667393 -30.022869
2190000000 -15.891348 -34.180359 19.72773 112.86752 -54.629498 68.182617 -19.605768 -30.038799
2200000000 -15.852964 -34.310368 19.729696 112.56648 -55.017471 65.886322 -19.553577 -29.404358
2210000000 -15.808965 -34.397156 19.729939 112.27289 -55.752087 63.039841 -19.461586 -29.282221
2220000000 -15.770097 -34.402515 19.73222 111.97976 -54.993401 67.294312 -19.498079 -28.925985
2230000000 -15.736487 -34.567005 19.733603 111.67783 -55.554874 64.838524 -19.422907 -28.828829
2240000000 -15.700197 -34.698895 19.733919 111.38493 -54.713139 66.283417 -19.36133 -28.297497
2250000000 -15.646689 -34.944489 19.735258 111.08595 -55.112263 62.114037 -19.30162 -28.104618
2260000000 -15.603742 -35.086227 19.736794 110.79269 -55.305603 64.810371 -19.255939 -27.768923
2270000000 -15.55032 -35.219559 19.73843 110.49583 -54.626377 67.426064 -19.239706 -27.57649
2280000000 -15.490416 -35.37014 19.738949 110.20114 -54.595955 66.471428 -19.235247 -27.186087
2290000000 -15.456667 -35.452263 19.741571 109.9004 -54.0769 65.570801 -19.208523 -26.810638
2300000000 -15.401036 -35.50502 19.743073 109.60776 -54.46027 63.847809 -19.118689 -26.664461
2310000000 -15.353605 -35.577915 19.742964 109.31619 -54.369297 59.602978 -19.059175 -26.554142
2320000000 -15.320202 -35.565216 19.744589 109.01908 -54.234779 61.805851 -19.013042 -26.206484
2330000000 -15.283736 -35.670528 19.744944 108.71244 -54.384369 62.736462 -19.003201 -25.77276
2340000000 -15.254563 -35.734425 19.746674 108.42271 -54.35022 62.142147 -18.932831 -25.645779
2350000000 -15.228736 -35.916862 19.749807 108.11849 -54.988667 63.711575 -18.890736 -25.30732
2360000000 -15.196343 -36.077805 19.750933 107.82095 -53.981426 61.570377 -18.848387 -25.179024
2370000000 -15.16264 -36.229164 19.751904 107.519 -53.926731 61.984554 -18.854097 -24.883493
2380000000 -15.128185 -36.392357 19.751875 107.22915 -54.227882 60.618126 -18.754496 -24.160139
2390000000 -15.085231 -36.547646 19.752974 106.93252 -53.623493 60.812023 -18.742067 -24.243996
2400000000 -15.047226 -36.755886 19.754366 106.63541 -53.825184 62.015583 -18.720045 -23.729576
2410000000 -14.995709 -36.795013 19.754927 106.33077 -53.123837 59.580662 -18.650217 -23.533558
2420000000 -14.938291 -36.889076 19.755968 106.03959 -53.990479 58.022499 -18.660749 -23.531374
2430000000 -14.904963 -37.026592 19.75787 105.7329 -54.317436 61.350174 -18.564522 -23.054417
2440000000 -14.868275 -37.072731 19.757759 105.43989 -53.687489 63.374477 -18.565432 -22.702274
2450000000 -14.834606 -37.158222 19.761883 105.1396 -53.369778 60.069023 -18.544447 -22.397093
2460000000 -14.811881 -37.243111 19.761864 104.8381 -53.851997 60.979874 -18.482044 -22.211187
2470000000 -14.776755 -37.343884 19.763353 104.53488 -53.353409 61.943573 -18.425293 -22.064497
2480000000 -14.764096 -37.486866 19.764137 104.23457 -53.302475 56.764084 -18.411366 -21.8351
2490000000 -14.738248 -37.602539 19.763937 103.93283 -53.394917 59.671711 -18.368769 -21.586628
2500000000 -14.704646 -37.768688 19.766111 103.63066 -53.618778 56.278137 -18.275875 -21.364571
2510000000 -14.675071 -37.954899 19.766186 103.34135 -53.511333 56.874645 -18.271997 -20.966866
2520000000 -14.635241 -38.087032 19.768267 103.04029 -53.059464 52.333885 -18.2197 -20.741024
2530000000 -14.60075 -38.249321 19.76947 102.74093 -53.127781 57.123589 -18.189802 -20.181746
2540000000 -14.561557 -38.398502 19.770557 102.44843 -53.519009 56.269947 -18.147024 -20.142944
2550000000 -14.517752 -38.54821 19.772734 102.14912 -52.812061 53.252758 -18.118494 -20.17905
2560000000 -14.497918 -38.554211 19.771404 101.84396 -52.897568 60.3755 -18.042809 -19.542263
2570000000 -14.468171 -38.663216 19.773451 101.54254 -53.100693 59.645367 -18.029022 -19.489695
2580000000 -14.43655 -38.714596 19.775448 101.24001 -52.877701 59.462315 -17.968061 -19.100426
2590000000 -14.400847 -38.808636 19.775082 100.93582 -52.641502 59.573547 -17.960421 -18.976332
2600000000 -14.389729 -38.921463 19.775875 100.63571 -52.961834 57.312897 -17.932438 -18.47859
2610000000 -14.373413 -39.064278 19.777443 100.33048 -52.956509 53.788292 -17.882982 -18.162506
2620000000 -14.356298 -39.17429 19.777578 100.03104 -52.698166 55.169971 -17.838518 -18.056629
2630000000 -14.324367 -39.313797 19.779192 99.735794 -52.937225 54.795582 -17.832457 -17.772018
2640000000 -14.303615 -39.502773 19.779898 99.433449 -52.120232 54.826412 -17.725462 -17.537762
2650000000 -14.281462 -39.655609 19.782124 99.132835 -52.837906 57.11467 -17.731306 -17.323095
2660000000 -14.261925 -39.843288 19.781528 98.83654 -52.679836 56.907787 -17.674889 -16.838917
2670000000 -14.219404 -39.982048 19.783905 98.534561 -52.579288 55.715168 -17.619783 -16.822758
2680000000 -14.193053 -40.073902 19.783283 98.229897 -52.62431 50.840519 -17.572319 -16.599449
2690000000 -14.156735 -40.158554 19.783575 97.921005 -52.054253 54.344315 -17.59071 -16.168798
2700000000 -14.143396 -40.227657 19.784571 97.626091 -52.036175 54.006382 -17.496456 -16.059273
2710000000 -14.11546 -40.261623 19.785604 97.316055 -52.077663 54.933495 -17.499329 -15.700378
2720000000 -14.103524 -40.341553 19.787161 97.019012 -52.245609 53.792427 -17.447247 -15.607635
2730000000 -14.091251 -40.522007 19.787937 96.715118 -52.412971 56.623444 -17.388578 -15.394077
2740000000 -14.077383 -40.580704 19.789154 96.416191 -52.019653 53.10928 -17.382843 -15.072614
2750000000 -14.059437 -40.709061 19.789268 96.113708 -52.30405 51.412342 -17.312202 -14.9573
2760000000 -14.057258 -40.961716 19.791336 95.812309 -52.322491 47.602051 -17.325079 -14.750611
2770000000 -14.042012 -41.06255 19.791006 95.506584 -52.13126 50.599804 -17.269434 -14.401376
2780000000 -14.015573 -41.233135 19.791309 95.203316 -51.709427 51.578808 -17.203913 -14.107718
2790000000 -13.994108 -41.399887 19.792294 94.911026 -52.181435 51.277729 -17.224293 -13.764715
2800000000 -13.969351 -41.470718 19.792206 94.60717 -52.557896 50.800186 -17.149086 -13.801457
2810000000 -13.950973 -41.672123 19.794127 94.310783 -51.695358 51.066776 -17.13792 -13.382449
2820000000 -13.941276 -41.679504 19.794928 94.010559 -51.875023 48.22831 -17.098059 -13.099505
2830000000 -13.919392 -41.776154 19.79501 93.705528 -51.854137 50.543785 -17.038254 -13.053391
2840000000 -13.906097 -41.891308 19.795654 93.402931 -52.167038 46.765018 -17.040518 -12.796691
2850000000 -13.894055 -41.894066 19.797501 93.093216 -51.551003 50.44223 -16.984549 -12.114924
2860000000 -13.885053 -42.045456 19.799059 92.790184 -51.449657 48.654613 -16.973866 -12.080274
2870000000 -13.890741 -42.189907 19.798019 92.500046 -51.592567 46.459187 -16.887793 -11.987844
2880000000 -13.883281 -42.326504 19.799902 92.182007 -51.534096 47.321888 -16.912376 -11.742346
2890000000 -13.876802 -42.443806 19.799984 91.883308 -51.586838 45.307693 -16.864235 -11.596913
2900000000 -13.864933 -42.595642 19.801865 91.582016 -51.797604 48.264313 -16.805908 -11.262069
2910000000 -13.860416 -42.773205 19.801905 91.277397 -51.038948 47.006325 -16.793329 -10.832202
2920000000 -13.840351 -42.957241 19.803066 90.979897 -51.653561 46.274536 -16.751368 -10.60464
2930000000 -13.821114 -43.065189 19.805218 90.674919 -51.371918 46.543449 -16.702728 -10.385871
2940000000 -13.810586 -43.080513 19.804367 90.368797 -50.962555 47.334618 -16.678947 -10.417434
2950000000 -13.793953 -43.195141 19.804562 90.07103 -51.08049 47.109451 -16.616856 -10.022586
2960000000 -13.787607 -43.334911 19.804928 89.766373 -51.325516 43.215839 -16.608471 -9.9787254
2970000000 -13.786307 -43.364311 19.806004 89.452217 -51.028481 46.075256 -16.586088 -9.4439516
2980000000 -13.787131 -43.425213 19.805849 89.143089 -51.271667 46.585987 -16.536068 -9.0959444
2990000000 -13.788363 -43.569149 19.808737 88.844353 -51.191601 45.819393 -16.51306 -8.9884348
3000000000 -13.791634 -43.647362 19.808331 88.52932 -51.233791 45.432854 -16.487604 -8.7567692
3010000000 -13.789243 -43.772667 19.80929 88.229103 -51.168465 46.445583 -16.428942 -8.3957882
3020000000 -13.79395 -43.891624 19.810036 87.928581 -51.104031 44.308247 -16.38331 -8.3252001
3030000000 -13.792965 -44.079666 19.81184 87.624146 -51.038109 42.559967 -16.362246 -7.9077864
3040000000 -13.781453 -44.189564 19.811741 87.31575 -50.924099 44.782585 -16.327446 -7.7502012
3050000000 -13.774252 -44.338127 19.811787 87.011833 -50.807384 42.449787 -16.296001 -7.5777483
3060000000 -13.780777 -44.518551 19.813869 86.707008 -51.601555 41.970497 -16.315086 -7.1641793
3070000000 -13.765145 -44.581345 19.813471 86.389938 -50.921112 43.533321 -16.220577 -6.9723401
3080000000 -13.765233 -44.709373 19.814814 86.094627 -50.938602 42.742302 -16.205845 -6.8830428
3090000000 -13.750354 -44.842121 19.814608 85.787201 -50.378975 41.327522 -16.170225 -6.7256312
3100000000 -13.766311 -44.882607 19.816225 85.474487 -50.797768 41.370304 -16.155685 -6.3036265
3110000000 -13.768625 -44.941528 19.814407 85.172432 -50.990543 39.757259 -16.099863 -6.0592813
3120000000 -13.772813 -44.962532 19.816343 84.861237 -51.124065 40.113201 -16.093288 -5.7700772
3130000000 -13.787263 -45.049229 19.816841 84.558815 -50.691776 39.562275 -16.048437 -5.7119474
3140000000 -13.806643 -45.214275 19.818554 84.250084 -50.346313 39.87077 -16.029173 -5.3723035
3150000000 -13.810591 -45.335178 19.82032 83.942436 -50.700294 40.448444 -15.966277 -5.1909671
3160000000 -13.816759 -45.471355 19.819504 83.647202 -50.291687 40.255432 -15.949613 -5.1873317
3170000000 -13.820986 -45.673401 19.820028 83.33374 -50.575268 40.828045 -15.925625 -4.6715326
3180000000 -13.822496 -45.88483 19.819633 83.023201 -50.214851 38.563938 -15.894769 -4.5524206
3190000000 -13.826429 -46.012291 19.821785 82.71981 -50.165779 37.99551 -15.882777 -4.2924657
3200000000 -13.830001 -46.103951 19.822285 82.405464 -50.423405 39.033733 -15.851917 -4.0304193
3210000000 -13.827548 -46.141304 19.822956 82.111534 -50.871384 43.173355 -15.789466 -3.6872363
3220000000 -13.8334 -46.230019 19.822756 81.804558 -50.457314 42.084679 -15.778068 -3.5416615
3230000000 -13.848907 -46.310341 19.824953 81.492065 -50.349754 39.339767 -15.734329 -3.4392867
3240000000 -13.859687 -46.373341 19.823406 81.185722 -50.322025 37.183624 -15.717563 -3.0877728
3250000000 -13.87708 -46.423935 19.8255 80.87944 -50.015297 39.121243 -15.684228 -2.8467579
3260000000 -13.900808 -46.5578 19.825283 80.567909 -50.326302 37.278255 -15.6631 -2.5939064
3270000000 -13.922043 -46.696041 19.827394 80.263214 -50.389599 38.135002 -15.648123 -2.4017661
3280000000 -13.939393 -46.763401 19.827461 79.952835 -50.245022 39.607815 -15.605459 -2.0368938
3290000000 -13.963058 -46.945503 19.828335 79.653984 -49.947868 37.611633 -15.572414 -2.0200071
3300000000 -13.976533 -47.094612 19.82749 79.339035 -50.60577 37.999138 -15.533767 -1.6743934
3310000000 -13.979759 -47.286182 19.829859 79.036324 -49.616501 35.039856 -15.5336 -1.3450862
3320000000 -13.999997 -47.384388 19.830692 78.72596 -50.098713 34.452328 -15.492878 -1.2121634
3330000000 -14.00759 -47.526848 19.831144 78.42588 -49.938538 33.74736 -15.430691 -0.85489833
3340000000 -14.021906 -47.580776 19.83234 78.114777 -49.942375 32.45126 -15.436747 -0.80898768
3350000000 -14.038177 -47.687992 19.832449 77.804062 -49.627533 34.559814 -15.425208 -0.49808812
3360000000 -14.054141 -47.745354 19.833687 77.498123 -49.861874 35.869396 -15.370096 -0.36527482
3370000000 -14.086721 -47.785645 19.83363 77.184433 -50.112358 35.474106 -15.360488 -0.038965151
3380000000 -14.112157 -47.89883 19.834879 76.875549 -50.220837 32.814556 -15.335263 0.18704282
3390000000 -14.143516 -47.964172 19.83474 76.558846 -49.753139 34.596561 -15.312417 0.51286948
3400000000 -14.178565 -48.08181 19.834843 76.262726 -49.698532 35.332016 -15.266516 0.6841231
3410000000 -14.208075 -48.261814 19.836208 75.945732 -49.801392 33.541233 -15.249235 0.93536538
3420000000 -14.233241 -48.428879 19.836161 75.642891 -49.887627 32.043114 -15.205666 1.0403966
3430000000 -14.264195 -48.63134 19.838003 75.33226 -49.64386 33.023186 -15.202373 1.2813573
3440000000 -14.284389 -48.817543 19.837664 75.02298 -49.30711 31.929689 -15.17806 1.4848914
3450000000 -14.31049 -48.961597 19.837578 74.718422 -49.847694 32.561226 -15.14395 1.8891785
3460000000 -14.326137 -49.063858 19.839136 74.407829 -49.68383 32.022221 -15.121495 1.9978353
3470000000 -14.353063 -49.18779 19.840321 74.098061 -49.819298 30.711218 -15.087993 2.3551719
3480000000 -14.373458 -49.249458 19.840218 73.787315 -49.768524 29.500729 -15.065372 2.5595198
3490000000 -14.397643 -49.342606 19.840876 73.477127 -49.483654 31.279993 -15.043205 2.7251482
3500000000 -14.43764 -49.374622 19.840767 73.160202 -49.331989 30.190639 -15.012964 2.9286578
3510000000 -14.479503 -49.415962 19.842121 72.848274 -49.496387 30.39188 -14.98711 3.1285167
3520000000 -14.521158 -49.583599 19.842031 72.533089 -49.204441 29.583834 -14.9718 3.3303058
3530000000 -14.562879 -49.653164 19.842463 72.228706 -49.286861 29.630819 -14.925373 3.6184785
3540000000 -14.613135 -49.849586 19.842131 71.923225 -49.35133 30.208199 -14.910155 3.7642944
3550000000 -14.651014 -50.030281 19.845072 71.60775 -49.201603 29.252871 -14.897803 3.940769
3560000000 -14.687521 -50.231762 19.844479 71.297554 -49.172062 29.527479 -14.85379 4.2334156
3570000000 -14.718631 -50.448227 19.845312 70.981247 -49.494534 26.657431 -14.839556 4.5627146
3580000000 -14.765761 -50.532883 19.844646 70.670692 -49.498249 27.625723 -14.81368 4.6765122
3590000000 -14.781257 -50.682877 19.846151 70.365105 -49.441193 28.881535 -14.796862 5.0054865
3600000000 -14.825687 -50.86425 19.846197 70.050194 -49.303394 26.680134 -14.76468 5.2401381
3610000000 -14.855118 -50.954903 19.847364 69.738976 -49.328106 27.412674 -14.762642 5.2576962
3620000000 -14.89586 -51.011017 19.848099 69.425056 -49.051342 26.255108 -14.724738 5.678977
3630000000 -14.939991 -51.076469 19.848799 69.10981 -49.079536 26.212618 -14.711683 5.7645431
3640000000 -14.986247 -51.19688 19.848532 68.793816 -48.927723 27.858631 -14.687943 5.9671454
3650000000 -15.045181 -51.282307 19.849459 68.481873 -49.187222 26.359125 -14.634633 6.2174988
3660000000 -15.10482 -51.404434 19.851067 68.171524 -49.171436 25.299036 -14.60822 6.3682752
3670000000 -15.163939 -51.596909 19.85169 67.85704 -49.14756 24.840858 -14.609711 6.7432528
3680000000 -15.209126 -51.733692 19.851309 67.547859 -48.843124 25.77356 -14.587099 6.8602052
3690000000 -15.262783 -51.955242 19.852348 67.23111 -48.937923 25.779531 -14.546176 7.2094755
3700000000 -15.312915 -52.169365 19.853575 66.921967 -48.77467 25.678986 -14.534456 7.4105539
3710000000 -15.358512 -52.386116 19.853689 66.611809 -48.850765 25.447699 -14.521425 7.6068912
3720000000 -15.406413 -52.504826 19.853798 66.300827 -48.899975 25.178267 -14.514668 7.7809224
3730000000 -15.458275 -52.641056 19.855087 65.988991 -48.957397 23.682522 -14.477535 7.9122806
3740000000 -15.504514 -52.776886 19.85524 65.666222 -48.914455 22.902693 -14.446304 8.2441959
3750000000 -15.556314 -52.862595 19.85532 65.353371 -49.027046 24.406689 -14.41485 8.3168478
3760000000 -15.613493 -52.967144 19.857107 65.039078 -48.713711 23.914644 -14.415466 8.5798492
3770000000 -15.677802 -53.100052 19.856426 64.723457 -48.803856 24.049179 -14.36561 8.8704739
3780000000 -15.749085 -53.127155 19.856806 64.405922 -49.104301 22.861961 -14.35729 9.1734428
3790000000 -15.826718 -53.270943 19.856874 64.097694 -49.126095 24.425781 -14.338238 9.2463312
3800000000 -15.90246 -53.454182 19.856827 63.775982 -48.660427 21.82605 -14.348018 9.5266418
3810000000 -15.972362 -53.707195 19.85721 63.465721 -48.783577 20.228029 -14.305288 9.825449
3820000000 -16.044807 -53.919571 19.857943 63.156513 -48.844284 22.158386 -14.284944 9.9065447
3830000000 -16.104015 -54.123417 19.857092 62.838951 -48.604088 21.85298 -14.247178 10.194117
3840000000 -16.166698 -54.387913 19.858379 62.534904 -48.833752 21.70764 -14.23322 10.420585
3850000000 -16.220417 -54.569443 19.858747 62.220379 -48.784683 19.725788 -14.215859 10.604755
3860000000 -16.292891 -54.746159 19.859657 61.90144 -48.345592 21.685484 -14.197206 10.812793
3870000000 -16.351263 -54.868999 19.859264 61.597569 -48.547096 22.605118 -14.177215 10.995944
3880000000 -16.412458 -54.985069 19.860422 61.266579 -48.508369 20.878542 -14.14351 11.266801
3890000000 -16.48835 -55.039703 19.860426 60.955616 -48.637733 21.876841 -14.139018 11.441757
3900000000 -16.576097 -55.195103 19.860205 60.634335 -48.418346 19.680553 -14.140142 11.721016
3910000000 -16.668987 -55.316807 19.859028 60.31963 -48.594238 19.585503 -14.092155 11.973985
3920000000 -16.757118 -55.48946 19.859304 60.00322 -48.540524 21.878042 -14.091057 12.165009
3930000000 -16.853752 -55.659843 19.861244 59.68565 -48.462376 18.385397 -14.050592 12.30492
3940000000 -16.955643 -55.874359 19.860651 59.37812 -48.311733 20.957655 -14.03547 12.528401
3950000000 -17.030066 -56.153854 19.861433 59.058701 -48.311146 18.980722 -14.039804 12.76318
3960000000 -17.114794 -56.419899 19.861021 58.745678 -48.153671 17.750547 -13.98737 12.848432
3970000000 -17.202484 -56.731346 19.862452 58.431168 -48.384624 18.435801 -13.984725 13.193021
3980000000 -17.281096 -56.968864 19.862373 58.112438 -48.504898 17.427019 -13.968799 13.393853
3990000000 -17.35742 -57.175762 19.861805 57.793716 -48.300022 17.274567 -13.958591 13.498158
4000000000 -17.437347 -57.360531 19.862057 57.475693 -48.543282 15.577804 -13.934468 13.731108
4010000000 -17.536552 -57.564106 19.860886 57.153667 -48.162395 16.281843 -13.923173 13.988916
4020000000 -17.625175 -57.678326 19.860903 56.836029 -48.244785 16.546513 -13.90315 14.061053
4030000000 -17.725842 -57.844509 19.860817 56.513634 -48.279488 15.064569 -13.876202 14.369279
4040000000 -17.834932 -57.895718 19.861721 56.197132 -48.082642 17.526844 -13.86757 14.559465
4050000000 -17.957912 -58.164963 19.861708 55.87756 -48.239964 15.814572 -13.830812 14.757995
4060000000 -18.079338 -58.408836 19.861078 55.552673 -48.258064 16.08819 -13.803437 14.909987
4070000000 -18.183485 -58.665813 19.862612 55.239292 -48.071293 16.743999 -13.784852 15.187909
4080000000 -18.299454 -58.928795 19.861137 54.925079 -48.089314 14.377603 -13.791186 15.353174
4090000000 -18.405552 -59.322441 19.860739 54.604229 -48.103237 14.494071 -13.771127 15.561894
4100000000 -18.524866 -59.636616 19.862061 54.280647 -48.263527 16.161011 -13.752191 15.722057
4110000000 -18.623177 -59.882774 19.862171 53.968739 -48.177731 14.392626 -13.738193 15.874816
4120000000 -18.731232 -60.270267 19.862066 53.643028 -48.148319 12.41521 -13.70691 16.227196
4130000000 -18.850246 -60.433735 19.861616 53.324211 -48.135426 13.289156 -13.689924 16.392473
4140000000 -18.95949 -60.569832 19.862658 52.99419 -48.125572 14.452204 -13.680232 16.618406
4150000000 -19.070944 -60.763535 19.861963 52.68026 -48.132282 13.129258 -13.662655 16.795612
4160000000 -19.213842 -61.023075 19.861547 52.363499 -48.298191 11.311615 -13.629061 16.992687
4170000000 -19.350239 -61.23354 19.86175 52.041676 -48.216076 14.37698 -13.613034 17.232265
4180000000 -19.484869 -61.602917 19.860409 51.717415 -47.667976 9.710494 -13.61852 17.360346
4190000000 -19.662048 -61.785255 19.859953 51.391644 -47.897617 12.516877 -13.590248 17.653868
4200000000 -19.820402 -62.160713 19.859497 51.075871 -47.992943 11.012746 -13.577277 17.858885
4210000000 -19.972858 -62.577881 19.860039 50.762112 -47.918289 11.603751 -13.568562 17.96204
4220000000 -20.109127 -62.904446 19.858536 50.444202 -48.171955 9.5501604 -13.556075 18.228714
4230000000 -20.244215 -63.469624 19.859285 50.119118 -47.895103 12.374058 -13.520751 18.320127
4240000000 -20.387564 -63.794762 19.860025 49.795052 -48.095802 9.2912407 -13.516183 18.608633
4250000000 -20.511477 -64.198669 19.858923 49.479839 -47.626842 9.9418926 -13.503092 18.735134
4260000000 -20.66165 -64.3974 19.858532 49.153629 -47.712982 10.312693 -13.49016 18.941555
4270000000 -20.814377 -64.703522 19.859579 48.82732 -47.883068 9.9202967 -13.460692 19.100677
4280000000 -20.983921 -65.084213 19.857655 48.505363 -47.799164 8.4165621 -13.456223 19.19035
4290000000 -21.138203 -65.329102 19.856171 48.187553 -47.591686 11.066299 -13.411857 19.501017
4300000000 -21.348783 -65.648613 19.856209 47.860046 -47.771786 9.3198643 -13.407999 19.655935
4310000000 -21.518732 -65.975784 19.855955 47.540352 -47.592022 9.580183 -13.405666 19.849167
4320000000 -21.734753 -66.285622 19.854427 47.220871 -48.076138 8.227375 -13.384614 20.049681
4330000000 -21.953722 -66.748055 19.854935 46.904167 -47.670811 8.2303925 -13.388556 20.458439
4340000000 -22.159418 -67.259605 19.85371 46.583122 -47.615562 7.6764541 -13.365038 20.448954
4350000000 -22.371559 -67.96096 19.854118 46.263687 -47.831791 6.2465115 -13.354203 20.663994
4360000000 -22.537577 -68.542953 19.853502 45.936554 -47.502769 5.7494593 -13.30811 20.852186
4370000000 -22.761129 -69.067535 19.852715 45.616554 -47.729317 6.8998303 -13.324101 21.158157
4380000000 -22.948204 -69.603012 19.853004 45.290855 -47.717812 8.6675911 -13.291903 21.242718
4390000000 -23.14258 -70.139008 19.851118 44.962303 -47.569412 8.1432495 -13.279062 21.430731
4400000000 -23.358221 -70.586647 19.849691 44.640987 -47.590065 7.0796113 -13.256275 21.584583
4410000000 -23.600788 -71.118538 19.848513 44.319324 -47.542191 6.4300804 -13.248878 21.811649
4420000000 -23.84757 -71.574928 19.849043 43.991901 -47.557896 5.7882376 -13.23688 21.941574
4430000000 -24.133516 -72.022491 19.847036 43.675068 -47.74229 3.472914 -13.214396 22.190178
4440000000 -24.401665 -72.725922 19.846825 43.333569 -47.627445 7.3274636 -13.20542 22.361069
4450000000 -24.702818 -73.459785 19.844187 43.017845 -47.590206 3.8546557 -13.191947 22.49148
4460000000 -24.990637 -74.177773 19.843428 42.705589 -47.562778 5.2243052 -13.181161 22.741108
4470000000 -25.339355 -75.004059 19.842384 42.373459 -47.365829 4.2869687 -13.149549 22.930424
4480000000 -25.633135 -76.012634 19.841368 42.056332 -47.56171 5.6182151 -13.152228 23.110678
4490000000 -25.925756 -76.975052 19.841963 41.730476 -47.397373 3.9521568 -13.153264 23.285807
4500000000 -26.246229 -78.186127 19.840622 41.41013 -47.390015 3.9829249 -13.137794 23.481497
4510000000 -26.556644 -79.315849 19.838959 41.087448 -47.394733 3.6267869 -13.105364 23.64299
4520000000 -26.85047 -80.314331 19.838379 40.751698 -47.365673 3.8471932 -13.100757 23.830492
4530000000 -27.231581 -81.474243 19.836845 40.417583 -47.470848 2.0213919 -13.08674 23.915522
4540000000 -27.580246 -82.277214 19.835186 40.096756 -47.517601 1.8786467 -13.064487 24.208441
4550000000 -27.918625 -83.759857 19.832878 39.771095 -47.346584 3.009995 -13.051651 24.383465
4560000000 -28.365381 -85.347992 19.83042 39.442478 -47.435776 4.0147653 -13.04895 24.699524
4570000000 -28.852213 -86.715797 19.829954 39.122044 -47.359348 1.1515445 -13.038473 24.657425
4580000000 -29.312571 -88.707947 19.827377 38.793015 -47.486591 1.9335784 -13.016385 24.955572
4590000000 -29.851942 -90.583603 19.826944 38.469063 -47.229004 2.2254002 -12.995357 25.062294
4600000000 -30.361164 -93.569847 19.824768 38.146759 -47.170609 -0.48574683 -13.01504 25.267712
4610000000 -30.835007 -96.166664 19.824549 37.807018 -47.187141 1.0561723 -12.963938 25.426939
4620000000 -31.289463 -99.003639 19.823385 37.487381 -47.230366 1.0166123 -12.97494 25.625235
4630000000 -31.834599 -102.84525 19.819981 37.159653 -47.3988 -1.2825333 -12.95506 25.797796
4640000000 -32.245975 -106.35654 19.819969 36.822979 -47.308098 -0.64606196 -12.96206 25.930656
4650000000 -32.628445 -109.79202 19.816769 36.504967 -47.297924 0.25870064 -12.93067 26.150373
4660000000 -33.161797 -114.25681 19.816401 36.179779 -47.291031 -0.72115183 -12.940363 26.261478
4670000000 -33.605057 -118.46677 19.814314 35.864594 -47.229172 -1.270164 -12.919817 26.483255
4680000000 -34.050926 -123.23011 19.812551 35.539589 -47.325256 -2.6043077 -12.90209 26.617859
4690000000 -34.465569 -129.50229 19.810688 35.205238 -47.152454 -0.54782534 -12.888318 26.685223
4700000000 -34.827591 -136.48239 19.807518 34.881447 -47.058739 -2.2798688 -12.895205 26.876257
4710000000 -35.036934 -143.3692 19.804346 34.553604 -47.23708 -1.7434865 -12.879784 27.063442
4720000000 -35.206982 -151.29881 19.800873 34.226521 -47.431164 -0.457928 -12.875581 27.218376
4730000000 -34.927586 -158.95055 19.800377 33.900078 -47.229271 -2.8614223 -12.867002 27.423752
4740000000 -34.578682 -166.7404 19.796095 33.572769 -46.94405 -2.9521403 -12.84255 27.540194
4750000000 -34.205555 -172.96156 19.795446 33.259254 -46.982246 -3.2999618 -12.846265 27.642889
4760000000 -33.773403 -178.21863 19.792913 32.934059 -47.179981 -3.684201 -12.828282 27.932268
4770000000 -33.219948 176.77333 19.792017 32.607533 -47.246662 -2.9023974 -12.825033 28.010992
4780000000 -32.78915 172.64139 19.790503 32.287613 -47.103634 -5.7740483 -12.810022 28.318951
4790000000 -32.209732 168.50433 19.788435 31.962116 -47.108078 -5.2942672 -12.794579 28.468624
4800000000 -31.785429 164.82529 19.785322 31.629383 -47.166882 -4.4991302 -12.781779 28.61445
4810000000 -31.32737 161.29561 19.781483 31.304705 -47.195374 -4.3716474 -12.76067 28.671257
4820000000 -30.80616 157.92604 19.777981 30.973457 -47.051243 -5.4637079 -12.774184 28.769957
4830000000 -30.312601 154.85542 19.775352 30.657499 -47.05172 -5.7432323 -12.745389 28.982368
4840000000 -29.79422 152.1936 19.772797 30.336258 -47.066944 -5.8316789 -12.760472 29.103321
4850000000 -29.23559 150.19389 19.770102 30.011463 -46.966564 -4.4274521 -12.732163 29.363411
4860000000 -28.73464 148.0374 19.767551 29.688852 -47.028454 -6.6660914 -12.725087 29.453873
4870000000 -28.229172 146.15489 19.765211 29.366034 -46.953217 -8.0506029 -12.746124 29.552761
4880000000 -27.79109 144.82254 19.762686 29.051731 -46.840523 -7.2189021 -12.716042 29.777849
4890000000 -27.336245 143.55421 19.760967 28.723907 -46.976006 -6.0039735 -12.721318 29.955154
4900000000 -26.923788 142.51656 19.757574 28.396669 -47.015804 -6.3727083 -12.701116 30.011982
4910000000 -26.541069 141.1199 19.755219 28.074892 -47.175343 -7.9055128 -12.69535 30.18623
4920000000 -26.18165 140.16698 19.753166 27.73497 -47.073494 -7.6919107 -12.681672 30.432802
4930000000 -25.819735 139.02982 19.751501 27.420563 -46.830441 -8.0061045 -12.680362 30.466936
4940000000 -25.526546 138.06808 19.746092 27.099911 -47.219524 -7.5344014 -12.67487 30.533504
4950000000 -25.169249 136.95546 19.74415 26.767138 -46.758919 -10.488182 -12.662888 30.754864
4960000000 -24.867567 136.18353 19.739487 26.443571 -47.021469 -7.7323403 -12.651434 30.920174
4970000000 -24.516665 135.15274 19.737736 26.122627 -46.806549 -11.256341 -12.657594 31.028912
4980000000 -24.18898 134.24933 19.732683 25.79793 -46.896229 -7.841764 -12.659555 31.097086
4990000000 -23.869846 133.79216 19.729864 25.47032 -46.903584 -9.5022383 -12.636494 31.233997
5000000000 -23.528032 133.07695 19.72603 25.151054 -46.810303 -7.5292807 -12.644282 31.400946
5010000000 -23.221643 132.6582 19.722195 24.829796 -46.641933 -10.560819 -12.639546 31.542629
5020000000 -22.967674 132.10387 19.720301 24.50325 -46.720463 -8.8120031 -12.63597 31.663252
5030000000 -22.673443 131.6411 19.715279 24.174688 -46.926369 -9.3613138 -12.597878 31.690729
5040000000 -22.440434 131.38657 19.711967 23.846056 -46.75909 -9.6197968 -12.596944 32.01421
5050000000 -22.164312 130.74486 19.71034 23.535425 -46.753819 -12.416668 -12.60294 32.150993
5060000000 -21.946573 130.29317 19.706743 23.20083 -46.896488 -12.214055 -12.615607 32.258823
5070000000 -21.732533 129.86064 19.702271 22.878008 -46.872417 -11.50375 -12.593987 32.355465
5080000000 -21.503302 129.44798 19.69832 22.557753 -46.790028 -12.495067 -12.589117 32.371475
5090000000 -21.280958 128.91574 19.694559 22.234789 -46.634766 -12.396605 -12.594081 32.479359
5100000000 -21.048897 128.39943 19.692001 21.905035 -46.800892 -11.190527 -12.579082 32.729458
5110000000 -20.838163 127.98635 19.687138 21.583012 -46.580952 -13.062107 -12.571393 32.830784
5120000000 -20.619812 127.59874 19.682964 21.266289 -46.700974 -11.415936 -12.5783 32.932415
5130000000 -20.39356 127.17773 19.680141 20.942327 -47.00774 -11.215589 -12.563568 33.112213
5140000000 -20.185823 126.95093 19.67527 20.622663 -46.992981 -10.879913 -12.56693 33.100349
5150000000 -19.964413 126.63953 19.671679 20.304045 -46.740646 -13.536541 -12.561151 33.278698
5160000000 -19.777817 126.40861 19.667545 19.97311 -46.967834 -14.46106 -12.563978 33.44252
5170000000 -19.597702 126.21362 19.66321 19.654942 -46.812031 -12.144007 -12.557593 33.53371
5180000000 -19.421375 126.00748 19.662487 19.331076 -46.708176 -13.587301 -12.566087 33.614433
5190000000 -19.259474 125.61787 19.656607 19.011345 -46.967808 -15.793218 -12.555407 33.699505
5200000000 -19.074455 125.35363 19.652287 18.689955 -46.740299 -13.557716 -12.565797 33.891113
5210000000 -18.931953 125.11954 19.649923 18.372778 -46.490856 -13.035441 -12.54056 33.946957
5220000000 -18.752586 124.79148 19.645435 18.042336 -46.343925 -15.457451 -12.564139 34.093327
5230000000 -18.603937 124.33981 19.640997 17.718149 -46.819344 -14.319502 -12.537998 34.344467
5240000000 -18.421183 123.96005 19.63582 17.409857 -46.60825 -16.75029 -12.528126 34.322861
5250000000 -18.258444 123.831 19.630713 17.083158 -46.676968 -16.218199 -12.51993 34.363953
5260000000 -18.108393 123.65553 19.626211 16.776134 -46.564308 -14.844027 -12.52426 34.501732
5270000000 -17.952658 123.38332 19.622952 16.460747 -46.628387 -14.196836 -12.544415 34.579063
5280000000 -17.790272 123.25347 19.619938 16.142298 -46.628769 -16.068895 -12.535154 34.779045
5290000000 -17.642609 123.05656 19.615589 15.826224 -46.632915 -15.508524 -12.510386 34.809563
5300000000 -17.493223 122.83975 19.61237 15.510933 -46.634663 -16.893021 -12.534399 34.848007
5310000000 -17.35693 122.71101 19.607601 15.187431 -46.704395 -16.174631 -12.524168 35.021412
5320000000 -17.223055 122.46638 19.604332 14.876439 -46.505917 -18.892607 -12.52601 35.202721
5330000000 -17.107851 122.24156 19.598232 14.546958 -46.759464 -16.330942 -12.529616 35.206104
5340000000 -16.984877 121.97343 19.594568 14.226493 -46.387764 -16.686132 -12.521081 35.396843
5350000000 -16.851442 121.77681 19.590012 13.906946 -46.802567 -16.907721 -12.537486 35.373558
5360000000 -16.715733 121.43227 19.584101 13.600006 -46.469078 -16.915438 -12.520181 35.478222
5370000000 -16.598288 121.17255 19.578897 13.280077 -46.48439 -18.269304 -12.524203 35.528877
5380000000 -16.450602 120.87823 19.573816 12.965522 -46.309692 -20.144175 -12.522513 35.68924
5390000000 -16.324665 120.74332 19.569649 12.652241 -46.461853 -21.223457 -12.537079 35.743149
5400000000 -16.213005 120.62639 19.565716 12.341205 -46.740932 -19.51511 -12.535637 35.873337
5410000000 -16.082773 120.57313 19.561251 12.029412 -46.571976 -18.382847 -12.513095 35.871418
5420000000 -15.964822 120.44839 19.557266 11.714191 -46.289925 -17.905857 -12.550353 35.884869
5430000000 -15.856739 120.298 19.552868 11.393956 -46.504417 -19.703098 -12.52549 36.082577
5440000000 -15.750997 120.14873 19.548519 11.076123 -46.655762 -20.241531 -12.534189 36.157436
5450000000 -15.642269 119.98562 19.542627 10.7583 -46.38422 -20.121674 -12.510221 36.232498
5460000000 -15.556138 119.844 19.538179 10.441213 -46.538433 -17.380037 -12.524195 36.344719
5470000000 -15.453154 119.61105 19.531849 10.132111 -46.727894 -19.155066 -12.536864 36.441948
5480000000 -15.352401 119.37492 19.526508 9.818367 -46.646282 -20.971973 -12.530978 36.648109
5490000000 -15.246605 119.15002 19.522837 9.5028114 -46.311939 -19.699821 -12.533829 36.541393
5500000000 -15.150772 118.88113 19.517179 9.1924505 -46.494686 -20.75773 -12.536213 36.732224
5510000000 -15.042728 118.64257 19.513447 8.8771944 -46.421951 -21.087572 -12.531421 36.79961
5520000000 -14.93467 118.56954 19.508211 8.5719948 -46.385498 -22.563723 -12.554835 36.957905
5530000000 -14.826827 118.31355 19.502304 8.2478886 -46.424942 -22.349049 -12.554564 36.965569
5540000000 -14.721505 118.28161 19.497923 7.9402761 -46.406269 -22.787247 -12.56284 37.152462
5550000000 -14.629468 118.18169 19.491951 7.6277328 -46.388004 -21.682423 -12.561378 37.147846
5560000000 -14.542328 118.07328 19.486748 7.3196406 -46.448757 -21.481699 -12.566144 37.147163
5570000000 -14.447173 117.91344 19.481321 7.0066781 -46.405766 -22.482817 -12.573462 37.269295
5580000000 -14.364916 117.82097 19.475542 6.695703 -46.517033 -21.725613 -12.567172 37.383377
5590000000 -14.288358 117.67882 19.470488 6.3771315 -46.391026 -21.534716 -12.587786 37.415451
5600000000 -14.209089 117.45987 19.466118 6.072351 -46.371529 -22.386335 -12.573829 37.546875
5610000000 -14.124803 117.29308 19.460796 5.7580786 -46.491436 -23.633242 -12.589396 37.516808
5620000000 -14.054928 117.14544 19.455635 5.4441009 -45.992435 -23.409206 -12.591699 37.641567
5630000000 -13.966644 116.9043 19.44957 5.1350021 -46.391117 -22.163425 -12.591855 37.670452
5640000000 -13.878778 116.63158 19.443314 4.823349 -46.347641 -23.945562 -12.609729 37.810638
5650000000 -13.79668 116.50626 19.437616 4.5117764 -46.557098 -22.965792 -12.615794 37.811008
5660000000 -13.702931 116.40394 19.432093 4.2106967 -46.078709 -23.828901 -12.619597 37.942661
5670000000 -13.620971 116.25458 19.426508 3.9008241 -46.11311 -23.516272 -12.620551 37.958191
5680000000 -13.545006 116.14983 19.423258 3.6067791 -46.330173 -25.597713 -12.654342 37.964531
5690000000 -13.464315 116.02975 19.417946 3.2987199 -46.12122 -25.394836 -12.645068 38.066032
5700000000 -13.391463 115.93532 19.413143 2.9893689 -46.39851 -24.273308 -12.65464 38.136227
5710000000 -13.319465 115.79295 19.408806 2.6737022 -46.006271 -25.581087 -12.649262 38.090538
5720000000 -13.252435 115.72697 19.402569 2.3678036 -46.229809 -23.273722 -12.670829 38.202892
5730000000 -13.178937 115.58232 19.397482 2.0602458 -46.251556 -25.100609 -12.675517 38.288158
5740000000 -13.116959 115.48223 19.390768 1.7478403 -46.074921 -25.658491 -12.685987 38.29776
5750000000 -13.047273 115.19032 19.383686 1.4389488 -46.50861 -25.942102 -12.676837 38.366421
5760000000 -12.982286 115.07238 19.377922 1.1332579 -46.165367 -25.322308 -12.692832 38.526276
5770000000 -12.909644 114.8868 19.371265 0.83148837 -46.104015 -26.551908 -12.704 38.440277
5780000000 -12.849132 114.69044 19.364111 0.52834344 -46.439991 -27.622803 -12.71405 38.53429
5790000000 -12.77358 114.54227 19.360516 0.23828863 -46.207504 -27.526297 -12.71666 38.457245
5800000000 -12.705761 114.45336 19.356388 -0.067803197 -46.376713 -26.849474 -12.722437 38.530811
5810000000 -12.637283 114.35091 19.351973 -0.36092693 -46.122921 -28.42333 -12.737226 38.653542
5820000000 -12.56885 114.28423 19.347185 -0.67090267 -46.188278 -28.247026 -12.729948 38.645607
5830000000 -12.511221 114.1567 19.340841 -0.97441423 -46.117218 -27.36264 -12.767014 38.802307
5840000000 -12.445013 114.07222 19.335804 -1.2823257 -46.294991 -27.163452 -12.758207 38.737305
5850000000 -12.389249 113.95302 19.33037 -1.5831935 -46.331436 -28.386969 -12.768002 38.891273
5860000000 -12.330067 113.78661 19.32288 -1.8848097 -46.052784 -29.628811 -12.780758 38.851028
5870000000 -12.282159 113.69882 19.316568 -2.1938851 -46.241989 -27.524458 -12.79355 38.879154
5880000000 -12.226653 113.50851 19.308531 -2.4873254 -46.094925 -28.434601 -12.802235 38.862057
5890000000 -12.171194 113.36735 19.304705 -2.7926514 -46.094238 -28.587978 -12.819651 39.029991
5900000000 -12.111916 113.20748 19.299435 -3.0905154 -46.057751 -28.855415 -12.841515 38.874985
5910000000 -12.052039 113.01378 19.294849 -3.3848321 -46.066528 -28.816387 -12.856626 38.969482
5920000000 -11.990186 112.88929 19.28791 -3.6841037 -46.131145 -28.89056 -12.845432 39.054302
5930000000 -11.931182 112.75691 19.284058 -3.9828978 -46.165253 -28.87454 -12.871799 39.049576
5940000000 -11.869797 112.65606 19.278246 -4.2833991 -46.045956 -28.448036 -12.879931 39.075333
5950000000 -11.816568 112.59966 19.273542 -4.5804377 -46.134888 -29.363789 -12.883121 39.051922
5960000000 -11.76083 112.53243 19.267849 -4.8798475 -45.965435 -28.765581 -12.927616 39.115528
5970000000 -11.710184 112.42504 19.261946 -5.1757102 -46.253643 -29.974115 -12.932906 39.154747
5980000000 -11.661042 112.28406 19.257172 -5.4764853 -46.237934 -32.144775 -12.929943 39.121029
5990000000 -11.62369 112.20147 19.250799 -5.7728848 -46.407513 -31.56731 -12.945554 39.142006
6000000000 -11.571788 112.05879 19.244919 -6.0702357 -46.075329 -31.094805 -12.967095 39.170341
6010000000 -11.525782 111.95041 19.239994 -6.3675184 -46.040024 -31.018915 -12.968269 39.281689
6020000000 -11.472906 111.7871 19.234991 -6.6588578 -46.039928 -30.41584 -12.980299 39.234367
6030000000 -11.425847 111.64813 19.229132 -6.9557667 -46.01268 -31.13541 -13.009458 39.28508
6040000000 -11.372428 111.52926 19.223972 -7.2562847 -46.057796 -32.102741 -13.009344 39.356613
6050000000 -11.323744 111.37415 19.217991 -7.5407815 -46.0466 -31.601749 -13.047498 39.18457
6060000000 -11.263786 111.26975 19.212967 -7.8503156 -46.081699 -32.821785 -13.050927 39.303097
6070000000 -11.218024 111.19317 19.206768 -8.1425161 -45.982376 -32.086601 -13.066351 39.355278
6080000000 -11.169705 111.15316 19.202126 -8.4354019 -46.007732 -31.392488 -13.095451 39.343426
6090000000 -11.128668 111.07248 19.19615 -8.7338095 -46.002621 -32.436359 -13.095207 39.40237
6100000000 -11.083182 110.98386 19.190498 -9.0283689 -45.995079 -32.479752 -13.127734 39.475765
6110000000 -11.0445 110.91372 19.186432 -9.3198795 -45.924152 -33.260612 -13.15727 39.402752
6120000000 -11.008623 110.78999 19.181015 -9.6155758 -45.884823 -32.26899 -13.162602 39.437672
6130000000 -10.96928 110.69852 19.176331 -9.9054213 -46.159859 -32.38427 -13.16592 39.373409
6140000000 -10.926083 110.54158 19.170689 -10.2005 -46.267208 -33.327927 -13.178866 39.292137
6150000000 -10.889873 110.45927 19.165436 -10.495983 -45.971405 -34.469398 -13.19044 39.362514
6160000000 -10.856462 110.32475 19.159151 -10.784929 -46.151367 -32.28146 -13.21842 39.364147
6170000000 -10.807793 110.18694 19.153681 -11.083953 -45.893261 -33.120338 -13.228232 39.4161
6180000000 -10.765059 110.0279 19.146582 -11.376534 -45.934185 -34.6077 -13.239518 39.383762
6190000000 -10.725828 109.94302 19.14197 -11.663254 -45.960228 -33.742599 -13.268044 39.41943
6200000000 -10.677525 109.84897 19.137117 -11.946946 -45.936405 -34.654961 -13.291068 39.320248
6210000000 -10.630579 109.7718 19.133257 -12.23843 -45.735294 -34.110863 -13.31442 39.361336
6220000000 -10.592908 109.73655 19.129292 -12.530005 -45.918736 -35.133564 -13.323668 39.406109
6230000000 -10.556878 109.65417 19.123873 -12.817656 -45.967205 -33.958797 -13.353531 39.371838
6240000000 -10.522728 109.62349 19.119478 -13.105074 -45.96241 -35.645313 -13.363471 39.432247
6250000000 -10.495689 109.49725 19.114044 -13.400536 -46.0051 -33.664162 -13.381586 39.311634
6260000000 -10.467101 109.43894 19.108133 -13.691753 -45.877617 -34.515587 -13.410138 39.350628
6270000000 -10.437847 109.32779 19.103144 -13.976674 -46.033741 -35.129681 -13.433743 39.438747
6280000000 -10.404548 109.22517 19.095909 -14.261184 -45.904316 -36.013096 -13.465151 39.33353
6290000000 -10.371934 109.12116 19.089611 -14.552359 -45.884445 -35.497368 -13.466267 39.411385
6300000000 -10.337055 109.002 19.084185 -14.841704 -45.773041 -35.647923 -13.494 39.383984
6310000000 -10.302258 108.86482 19.079264 -15.120471 -45.784771 -37.485435 -13.512913 39.289616
6320000000 -10.271137 108.76262 19.07604 -15.3974 -45.814644 -37.454056 -13.532692 39.21814
6330000000 -10.232254 108.69415 19.071751 -15.683784 -45.795868 -36.726894 -13.546839 39.120998
6340000000 -10.196242 108.64079 19.067568 -15.970871 -45.760494 -37.36676 -13.577904 39.23745
6350000000 -10.164069 108.60458 19.064157 -16.260492 -45.543812 -38.668835 -13.613489 39.255264
6360000000 -10.135172 108.53255 19.059206 -16.553844 -45.780167 -37.411182 -13.616529 39.172276
6370000000 -10.109107 108.44953 19.052721 -16.835091 -45.823143 -36.844826 -13.663105 39.149002
6380000000 -10.080465 108.38636 19.047348 -17.128942 -45.786125 -36.858093 -13.6889 39.049065
6390000000 -10.058336 108.32614 19.042276 -17.418699 -45.721813 -36.655445 -13.689536 39.228416
6400000000 -10.035419 108.24468 19.037046 -17.688244 -45.834171 -36.709816 -13.712913 38.965954
6410000000 -10.004442 108.11125 19.032019 -17.974377 -45.741917 -37.299011 -13.746943 39.167686
6420000000 -9.9818096 107.97028 19.028387 -18.25421 -45.763298 -38.280796 -13.764517 39.0425
6430000000 -9.9592113 107.87022 19.025307 -18.538572 -45.567932 -37.271935 -13.775028 39.016605
6440000000 -9.926218 107.81275 19.020866 -18.817459 -45.648643 -39.995838 -13.807837 38.95504
6450000000 -9.8942528 107.72935 19.015936 -19.104666 -45.640057 -40.023457 -13.844859 38.919704
6460000000 -9.8696747 107.61034 19.012579 -19.396744 -45.80603 -38.032894 -13.849112 38.907883
6470000000 -9.8379478 107.57944 19.006618 -19.676958 -45.550373 -38.997757 -13.890282 38.778629
6480000000 -9.811285 107.48712 19.002583 -19.963785 -45.678383 -39.133961 -13.908963 38.875458
6490000000 -9.7872171 107.45328 18.997515 -20.243267 -45.478142 -38.650604 -13.929661 38.757465
6500000000 -9.7717533 107.38799 18.993362 -20.527538 -45.829613 -38.511154 -13.971219 38.897842
6510000000 -9.7526731 107.341 18.986933 -20.810829 -45.615421 -38.68388 -13.983565 38.682327
6520000000 -9.7380981 107.24105 18.981888 -21.099369 -45.606705 -41.007751 -13.997205 38.612167
6530000000 -9.7199888 107.14679 18.978354 -21.375483 -45.480106 -39.831306 -14.034015 38.645901
6540000000 -9.7018938 107.0368 18.973757 -21.663517 -45.423843 -39.744328 -14.079809 38.462078
6550000000 -9.6811523 106.93186 18.969505 -21.939211 -45.500511 -39.202469 -14.093497 38.471443
6560000000 -9.6607685 106.82496 18.964167 -22.22279 -45.463688 -39.134369 -14.102609 38.344704
6570000000 -9.6366816 106.77922 18.961792 -22.499405 -45.421242 -40.535748 -14.13861 38.448898
6580000000 -9.614172 106.6512 18.955061 -22.782391 -45.46439 -41.507179 -14.160237 38.381039
6590000000 -9.5908957 106.62575 18.952011 -23.061741 -45.340984 -39.246391 -14.211873 38.379356
6600000000 -9.570447 106.48038 18.94702 -23.339417 -45.550488 -41.443478 -14.231154 38.154495
6610000000 -9.5475969 106.47432 18.942772 -23.629965 -45.528297 -41.063442 -14.228436 38.345894
6620000000 -9.5250072 106.39287 18.939989 -23.907211 -45.36731 -40.486164 -14.264195 38.16386
6630000000 -9.5168247 106.41743 18.936621 -24.185436 -45.762814 -41.73074 -14.313003 38.062176
6640000000 -9.5044355 106.30212 18.932562 -24.46188 -45.395473 -41.866058 -14.328689 38.022068
6650000000 -9.4928894 106.21558 18.928907 -24.748146 -45.334034 -40.994755 -14.366025 38.025768
6660000000 -9.4793005 106.16625 18.923868 -25.026403 -45.318455 -42.517155 -14.393367 37.922585
6670000000 -9.4637289 106.02937 18.92042 -25.302601 -45.490032 -42.470947 -14.420642 37.925892
6680000000 -9.4530945 105.96514 18.916397 -25.587149 -45.285503 -41.262836 -14.441618 37.907185
6690000000 -9.4429836 105.79544 18.91083 -25.862398 -45.527451 -43.187668 -14.469609 37.637028
6700000000 -9.4290676 105.68047 18.907486 -26.148367 -45.455612 -43.270241 -14.49192 37.705875
6710000000 -9.4085712 105.59415 18.903059 -26.423262 -45.374779 -42.996815 -14.520091 37.533932
6720000000 -9.3959045 105.49704 18.901649 -26.694397 -45.44696 -44.7356 -14.567012 37.531963
6730000000 -9.3719168 105.44475 18.897488 -26.969894 -45.302799 -43.408863 -14.589546 37.39043
6740000000 -9.3567066 105.41066 18.895384 -27.248871 -45.315872 -43.10928 -14.600514 37.386822
6750000000 -9.3430672 105.30935 18.891428 -27.525684 -45.18314 -43.150005 -14.670532 37.263508
6760000000 -9.3296213 105.2867 18.889961 -27.802713 -45.282635 -43.809967 -14.668048 37.253189
6770000000 -9.320015 105.2439 18.885508 -28.084791 -45.120388 -43.090916 -14.683329 37.085785
6780000000 -9.3076553 105.15355 18.881525 -28.369064 -45.385605 -44.034416 -14.735968 36.925625
6790000000 -9.3007116 105.07726 18.87714 -28.631689 -45.218857 -44.890083 -14.772253 36.993908
6800000000 -9.297369 105.00408 18.872881 -28.913614 -45.296322 -44.465843 -14.811696 36.80854
6810000000 -9.2897778 104.89903 18.869518 -29.193226 -45.153801 -45.287575 -14.855161 36.800011
6820000000 -9.2863855 104.78531 18.865116 -29.475857 -45.193474 -45.754597 -14.887295 36.707611
6830000000 -9.2732353 104.6769 18.861217 -29.752909 -44.893871 -45.637329 -14.901198 36.727531
6840000000 -9.2640543 104.60697 18.858122 -30.022364 -45.210773 -45.814857 -14.939013 36.549805
6850000000 -9.2487679 104.53098 18.8552 -30.290834 -45.275532 -44.361881 -14.965512 36.443165
6860000000 -9.2391977 104.46021 18.852118 -30.565695 -44.961983 -46.042377 -14.993134 36.279377
6870000000 -9.2260237 104.35898 18.850067 -30.843775 -45.016533 -45.828659 -15.02888 36.25135
6880000000 -9.2163191 104.31369 18.847412 -31.121304 -45.092735 -45.013317 -15.086858 36.133301
6890000000 -9.2043362 104.26788 18.844065 -31.39632 -44.931732 -45.917267 -15.095162 36.076904
6900000000 -9.208004 104.19376 18.840651 -31.673428 -45.266354 -45.362389 -15.132102 35.745296
6910000000 -9.1976862 104.13074 18.837841 -31.943539 -45.079815 -45.703396 -15.170607 35.76944
6920000000 -9.2009659 104.06862 18.83353 -32.228851 -45.263359 -46.37743 -15.197365 35.731575
6930000000 -9.196847 104.00264 18.831127 -32.504654 -45.224682 -45.670757 -15.216208 35.583408
6940000000 -9.1971664 103.86217 18.828262 -32.775913 -44.99826 -47.641911 -15.262733 35.513
6950000000 -9.1913452 103.75362 18.826799 -33.053776 -44.807663 -46.850525 -15.291 35.583801
6960000000 -9.1835012 103.68074 18.823341 -33.325211 -45.097076 -46.729744 -15.299405 35.32618
6970000000 -9.1790419 103.55159 18.82045 -33.602688 -44.783337 -47.182671 -15.344525 35.238853
6980000000 -9.169487 103.45991 18.81819 -33.873863 -45.011936 -47.060165 -15.3833 35.044804
6990000000 -9.1619234 103.39967 18.815039 -34.152229 -44.899933 -48.373894 -15.422032 34.975735
7000000000 -9.1574383 103.31169 18.812952 -34.41964 -44.986832 -45.894058 -15.450676 34.983772
7010000000 -9.1505337 103.2128 18.809713 -34.695229 -45.023678 -47.586876 -15.47956 34.838844
7020000000 -9.1422462 103.17069 18.808876 -34.97332 -44.916534 -48.84634 -15.526426 34.800934
7030000000 -9.1393309 103.0938 18.80526 -35.24778 -44.927456 -48.806465 -15.537161 34.645054
7040000000 -9.138175 103.0274 18.804249 -35.527737 -44.722984 -48.414845 -15.598638 34.456352
7050000000 -9.1389914 102.97615 18.801054 -35.805862 -44.720932 -48.086613 -15.617074 34.49419
7060000000 -9.1431189 102.89537 18.799604 -36.07542 -44.939991 -49.409351 -15.665421 34.302078
7070000000 -9.1467428 102.81318 18.797611 -36.345558 -44.880463 -48.95451 -15.698662 34.144478
7080000000 -9.1463804 102.71531 18.794216 -36.626194 -44.669117 -49.080872 -15.722182 34.082401
7090000000 -9.1450577 102.61167 18.792118 -36.898659 -44.614452 -47.891449 -15.790571 33.803543
7100000000 -9.1425486 102.4591 18.789282 -37.173302 -44.903187 -49.508873 -15.815331 33.652477
7110000000 -9.136982 102.37711 18.787014 -37.448208 -44.674625 -49.662994 -15.829217 33.659431
7120000000 -9.1382608 102.28036 18.784838 -37.720367 -44.804508 -50.475178 -15.879145 33.366486
7130000000 -9.1341362 102.18597 18.782492 -37.987885 -44.624222 -50.983742 -15.899701 33.358269
7140000000 -9.1315584 102.16616 18.781685 -38.254177 -44.710655 -50.291206 -15.936624 33.068085
7150000000 -9.1310892 102.12869 18.779446 -38.536716 -44.77589 -50.026817 -15.995461 33.150208
7160000000 -9.1295862 102.07851 18.778257 -38.811905 -44.729057 -49.529457 -16.022921 32.897984
7170000000 -9.1259174 102.0111 18.777103 -39.086212 -44.785179 -49.995598 -16.028738 32.797836
7180000000 -9.1389503 101.92487 18.775084 -39.362427 -44.690151 -51.368313 -16.068552 32.783131
7190000000 -9.143528 101.83059 18.773825 -39.644089 -44.561081 -50.75375 -16.119507 32.52351
7200000000 -9.1502924 101.77608 18.772524 -39.918083 -44.538418 -49.377583 -16.159239 32.60458
7210000000 -9.1552954 101.61591 18.769804 -40.187435 -44.639576 -52.071415 -16.198868 32.217236
7220000000 -9.1609278 101.50235 18.766787 -40.461639 -44.437813 -51.713711 -16.225191 32.09132
7230000000 -9.165431 101.37524 18.764786 -40.736046 -44.162895 -51.670502 -16.264833 32.180859
7240000000 -9.1665354 101.32507 18.764421 -41.005081 -44.561447 -50.998722 -16.309322 32.065529
7250000000 -9.1692162 101.18869 18.763985 -41.277004 -44.361362 -52.145252 -16.33449 31.749943
7260000000 -9.159317 101.09534 18.762955 -41.551659 -44.406883 -50.689976 -16.372231 31.544516
7270000000 -9.1634932 101.05839 18.761263 -41.824642 -44.346821 -51.487274 -16.432381 31.581272
7280000000 -9.1621647 100.97953 18.761631 -42.101543 -44.458206 -52.034576 -16.440203 31.335918
7290000000 -9.1614237 100.95018 18.760454 -42.37809 -44.431061 -51.866753 -16.488638 31.017231
7300000000 -9.1653795 100.90092 18.759357 -42.651455 -44.392582 -53.331337 -16.567249 31.02426
7310000000 -9.1799774 100.82006 18.756592 -42.920956 -44.525249 -53.645435 -16.576355 30.711393
7320000000 -9.1830206 100.74317 18.755388 -43.204391 -44.21529 -54.508617 -16.614319 30.733925
7330000000 -9.1952848 100.71925 18.754284 -43.473087 -44.238194 -53.112667 -16.655104 30.350937
7340000000 -9.2116823 100.64807 18.75279 -43.75528 -44.442966 -52.952225 -16.679226 30.356861
7350000000 -9.2207241 100.57677 18.752296 -44.032719 -44.495785 -52.077637 -16.734371 30.352505
7360000000 -9.2330046 100.43056 18.751804 -44.300255 -44.27483 -53.190807 -16.774288 30.128828
7370000000 -9.2413063 100.30737 18.750427 -44.57621 -44.15538 -53.842243 -16.824709 29.922672
7380000000 -9.2454338 100.20535 18.750158 -44.848507 -44.378933 -53.460579 -16.835911 29.794659
7390000000 -9.2532482 100.08578 18.750261 -45.118168 -44.179192 -52.67688 -16.898411 29.652897
7400000000 -9.2520933 100.04915 18.749981 -45.398567 -43.893002 -54.970806 -16.921877 29.431623
7410000000 -9.2606306 99.969856 18.749418 -45.674458 -44.071507 -52.893265 -16.971205 29.593243
7420000000 -9.2683878 99.876297 18.747347 -45.944839 -44.167984 -55.594894 -16.990641 29.053572
7430000000 -9.2731142 99.841072 18.746326 -46.228939 -44.008831 -54.850864 -17.040615 28.968126
7440000000 -9.2900333 99.78289 18.747351 -46.508728 -44.064934 -54.573238 -17.096691 28.917887
7450000000 -9.302124 99.721092 18.744869 -46.782543 -44.089897 -55.394501 -17.128262 28.76642
7460000000 -9.3168936 99.617508 18.746422 -47.061634 -44.049034 -55.16391 -17.202456 28.583666
7470000000 -9.332509 99.540367 18.744431 -47.333607 -43.914436 -55.649235 -17.230886 28.505671
7480000000 -9.3502579 99.428841 18.744978 -47.612503 -43.898838 -56.282192 -17.291409 28.295837
7490000000 -9.3670883 99.316002 18.744965 -47.887192 -43.906639 -56.000561 -17.315544 27.820671
7500000000 -9.3755035 99.217018 18.743917 -48.159466 -43.890064 -56.535061 -17.342226 27.917866
7510000000 -9.3825064 99.049118 18.743788 -48.438931 -44.028179 -56.800014 -17.368694 27.660151
7520000000 -9.3921509 98.964325 18.74283 -48.70982 -43.823524 -57.027718 -17.427341 27.434654
7530000000 -9.4016848 98.88401 18.743717 -48.990349 -43.775288 -56.784298 -17.469738 27.239647
7540000000 -9.4104862 98.829918 18.742649 -49.269337 -43.869263 -56.72739 -17.497759 26.948833
7550000000 -9.4190884 98.76947 18.744812 -49.546806 -43.924545 -57.619278 -17.569241 26.764114
7560000000 -9.4277172 98.647598 18.744608 -49.824478 -43.755516 -56.219276 -17.583096 26.483242
7570000000 -9.4480391 98.63562 18.744534 -50.105171 -43.813248 -57.739277 -17.631981 26.668989
7580000000 -9.465683 98.577126 18.744282 -50.38591 -43.885529 -56.960285 -17.707165 26.313721
7590000000 -9.4822788 98.511536 18.744921 -50.666264 -43.78014 -58.941608 -17.730835 25.913803
7600000000 -9.4995556 98.43206 18.74472 -50.939484 -43.821266 -59.560966 -17.732025 25.757587
7610000000 -9.5247698 98.278702 18.744137 -51.21907 -43.772327 -57.775875 -17.776735 25.649963
7620000000 -9.5436792 98.174675 18.743832 -51.499134 -43.703617 -57.719223 -17.837608 25.350719
7630000000 -9.564846 98.049232 18.743929 -51.770596 -43.824085 -59.182655 -17.893501 25.131847
7640000000 -9.5757627 97.950005 18.743996 -52.051552 -43.709778 -58.771614 -17.890131 25.04051
7650000000 -9.5824165 97.80616 18.745613 -52.326649 -43.415043 -58.337944 -17.938829 24.88802
7660000000 -9.6045856 97.766968 18.744993 -52.611092 -43.592373 -60.425194 -17.990099 24.960081
7670000000 -9.6141777 97.685555 18.746977 -52.878727 -43.625767 -58.630173 -18.054291 24.539438
7680000000 -9.6290369 97.589714 18.749496 -53.152687 -43.585938 -59.292225 -18.039631 24.167284
7690000000 -9.6442776 97.542107 18.748211 -53.432323 -43.658421 -59.479691 -18.116783 24.29727
7700000000 -9.6706047 97.502197 18.748251 -53.719082 -43.390629 -59.997334 -18.158453 24.052702
7710000000 -9.6856985 97.433617 18.749189 -54.002975 -43.612236 -60.096329 -18.222078 23.679832
7720000000 -9.7149563 97.374916 18.749893 -54.280273 -43.365528 -59.721786 -18.284306 23.674393
7730000000 -9.737977 97.25872 18.749605 -54.577103 -43.362446 -59.40057 -18.301956 23.550352
7740000000 -9.7670326 97.155128 18.749063 -54.849606 -43.51593 -59.930054 -18.347733 23.139864
7750000000 -9.7974195 97.029488 18.75001 -55.126961 -43.52705 -61.296146 -18.387745 22.814795
7760000000 -9.817318 96.884201 18.750393 -55.408192 -43.412476 -61.516632 -18.435156 22.650032
7770000000 -9.8385057 96.755226 18.751656 -55.684731 -43.335255 -61.282215 -18.471695 22.377636
7780000000 -9.8553057 96.606873 18.754208 -55.960426 -43.223408 -60.948769 -18.504591 22.189913
7790000000 -9.8762836 96.519249 18.754629 -56.231899 -43.25156 -61.31918 -18.56188 21.711763
7800000000 -9.8888903 96.444176 18.75421 -56.515995 -43.338192 -63.085056 -18.625179 21.845041
7810000000 -9.9035912 96.363258 18.756979 -56.792019 -43.320587 -62.08371 -18.638855 21.632248
7820000000 -9.9311848 96.299042 18.757231 -57.078793 -43.318268 -61.87088 -18.716982 21.396742
7830000000 -9.9543228 96.213638 18.757168 -57.359486 -43.206448 -62.93335 -18.737135 21.267515
7840000000 -9.9784594 96.193779 18.757776 -57.643219 -43.178581 -62.541332 -18.762924 20.969032
7850000000 -10.008513 96.118187 18.758282 -57.9184 -43.161694 -63.213634 -18.827343 20.555292
7860000000 -10.042906 95.991341 18.758871 -58.205452 -42.869129 -63.111961 -18.842625 20.555799
7870000000 -10.06938 95.940216 18.760792 -58.475441 -43.230175 -62.294544 -18.894955 20.14784
7880000000 -10.108438 95.794678 18.76104 -58.749859 -43.021732 -63.428452 -18.941515 20.064909
7890000000 -10.139351 95.630547 18.762812 -59.043324 -43.073444 -62.764057 -19.01984 19.983704
7900000000 -10.160069 95.541573 18.764425 -59.314804 -43.078545 -64.599403 -19.086681 19.541464
7910000000 -10.187469 95.367226 18.767033 -59.604458 -42.937035 -63.959743 -19.091749 19.037918
7920000000 -10.207735 95.212814 18.768425 -59.883186 -43.154682 -64.505226 -19.10767 19.055584
7930000000 -10.234714 95.142136 18.768909 -60.154926 -42.983307 -63.758526 -19.173386 18.989128
7940000000 -10.251544 95.055832 18.769846 -60.455372 -42.88974 -64.497383 -19.213501 18.927805
7950000000 -10.275886 95.007469 18.77112 -60.730961 -42.972633 -64.92321 -19.252388 18.376028
7960000000 -10.306599 94.894699 18.77232 -61.015728 -42.807327 -65.195656 -19.309813 18.068125
7970000000 -10.33771 94.860085 18.77387 -61.297157 -42.926868 -65.135605 -19.333809 18.122623
7980000000 -10.375664 94.806847 18.775259 -61.578419 -42.922054 -66.183357 -19.379944 17.815546
7990000000 -10.405087 94.703491 18.777779 -61.873852 -42.958427 -65.43261 -19.457836 17.601919
8000000000 -10.448023 94.575317 18.779161 -62.153698 -42.80901 -65.799706 -19.450497 17.200464
8010000000 -10.488708 94.451195 18.779177 -62.436626 -42.622013 -65.518356 -19.482626 16.917284
8020000000 -10.523466 94.281288 18.780289 -62.725636 -42.678143 -67.11412 -19.572184 16.682304
8030000000 -10.554756 94.129105 18.780773 -63.010277 -42.828571 -66.251976 -19.574917 16.457363
8040000000 -10.588318 93.954933 18.782206 -63.294197 -42.641804 -66.409332 -19.609041 16.102638
8050000000 -10.612804 93.825523 18.783916 -63.576431 -42.697323 -67.150932 -19.662689 15.682389
8060000000 -10.632565 93.642021 18.786182 -63.87294 -42.527405 -67.520355 -19.684967 15.751672
8070000000 -10.666904 93.565712 18.787516 -64.165787 -42.593826 -69.207901 -19.74567 15.814588
8080000000 -10.691942 93.47274 18.790329 -64.446617 -42.58321 -68.30526 -19.822136 15.395235
8090000000 -10.725674 93.42968 18.790215 -64.740494 -42.448662 -69.293663 -19.848032 14.953462
8100000000 -10.755907 93.353188 18.793362 -65.029121 -42.598049 -68.930405 -19.864683 14.510632
8110000000 -10.793638 93.288437 18.793192 -65.315872 -42.604004 -68.883469 -19.941769 14.506999
8120000000 -10.840343 93.187889 18.794527 -65.600876 -42.617153 -68.458977 -19.931437 14.392462
8130000000 -10.890941 93.05426 18.795713 -65.89489 -42.471085 -68.246315 -19.996149 14.139915
8140000000 -10.934601 92.905685 18.797354 -66.183014 -42.597263 -69.045921 -20.07181 13.875972
8150000000 -10.975134 92.738365 18.798515 -66.477333 -42.539169 -69.319618 -20.062216 13.38498
8160000000 -11.013926 92.536797 18.800205 -66.763756 -42.395947 -70.552353 -20.141546 13.351116
8170000000 -11.05414 92.36441 18.802044 -67.048019 -42.375526 -71.068466 -20.124367 12.944147
8180000000 -11.082874 92.21553 18.80444 -67.345039 -42.480408 -69.763252 -20.269171 12.673534
8190000000 -11.11862 92.10511 18.807186 -67.625977 -42.35498 -70.16571 -20.269972 12.319281
8200000000 -11.145307 91.933014 18.808794 -67.915802 -42.352901 -70.630035 -20.303709 12.443956
8210000000 -11.177143 91.883324 18.811605 -68.210815 -42.260792 -71.903999 -20.364408 12.14305
8220000000 -11.216629 91.79409 18.812338 -68.501663 -42.212067 -71.73127 -20.4055 12.084601
8230000000 -11.252194 91.675644 18.814507 -68.792023 -42.299503 -71.774467 -20.45397 11.573845
8240000000 -11.300978 91.546585 18.814896 -69.082314 -42.501266 -72.263252 -20.53138 11.305664
8250000000 -11.345662 91.476624 18.817896 -69.370628 -42.22023 -72.462929 -20.5177 11.166961
8260000000 -11.401305 91.348145 18.819641 -69.66507 -42.296074 -72.588676 -20.582455 10.706532
8270000000 -11.445139 91.214134 18.821074 -69.960251 -42.133392 -72.803337 -20.590714 10.484646
8280000000 -11.497408 91.071045 18.821526 -70.247459 -42.174221 -72.589119 -20.604538 10.247195
8290000000 -11.539263 90.920662 18.824284 -70.540756 -42.185394 -72.629128 -20.672403 10.140882
8300000000 -11.585549 90.722511 18.826586 -70.8228 -42.175781 -73.191902 -20.686243 9.9952726
8310000000 -11.624578 90.53817 18.828833 -71.114799 -42.118717 -73.235954 -20.739672 9.7151966
8320000000 -11.66227 90.406784 18.830709 -71.409203 -41.990265 -74.03476 -20.78167 9.3112249
8330000000 -11.699841 90.224808 18.83289 -71.696663 -42.035702 -74.397095 -20.838728 9.1077328
8340000000 -11.744277 90.129593 18.835424 -71.994003 -42.008698 -73.855347 -20.88065 8.9943581
8350000000 -11.781328 90.039116 18.838579 -72.280586 -41.946949 -73.62056 -20.941536 8.672143
8360000000 -11.819445 89.924728 18.839941 -72.592674 -41.897896 -73.208443 -20.978514 8.5541916
8370000000 -11.873423 89.7752 18.840925 -72.879738 -41.869198 -74.764709 -20.987301 8.0603876
8380000000 -11.935626 89.660103 18.842871 -73.182762 -41.912132 -75.136978 -21.006693 7.8632684
8390000000 -11.978682 89.524223 18.844698 -73.468239 -41.829445 -74.585617 -21.065504 7.3177419
8400000000 -12.045132 89.371216 18.846985 -73.774063 -41.773415 -74.990227 -21.153841 7.1493874
8410000000 -12.09234 89.25753 18.848307 -74.064049 -41.927631 -76.042717 -21.134388 6.9518981
8420000000 -12.15274 89.010719 18.851328 -74.361122 -41.82851 -75.767258 -21.204973 6.6859226
8430000000 -12.203269 88.843422 18.852879 -74.655678 -41.779423 -75.82373 -21.202427 6.3684568
8440000000 -12.248437 88.635246 18.85495 -74.949448 -41.768814 -76.063744 -21.24127 6.3424878
8450000000 -12.294892 88.411072 18.856676 -75.247505 -41.878525 -76.964638 -21.285645 6.1179967
8460000000 -12.342753 88.30294 18.85988 -75.548531 -41.856415 -76.177223 -21.348219 5.9150109
8470000000 -12.375662 88.125458 18.860846 -75.84626 -41.48877 -77.816986 -21.370842 5.4574132
8480000000 -12.429126 88.057823 18.862471 -76.145348 -41.692673 -77.019485 -21.422762 5.5766559
8490000000 -12.484681 87.87838 18.864771 -76.432251 -41.483509 -77.836967 -21.467628 5.0338864
8500000000 -12.542291 87.814819 18.866745 -76.735725 -41.623295 -78.035988 -21.511503 5.1655531
8510000000 -12.601395 87.676956 18.86974 -77.04187 -41.62151 -77.508682 -21.555019 4.4696174
8520000000 -12.667992 87.495117 18.871532 -77.333473 -41.643208 -78.068039 -21.563122 4.2875528
8530000000 -12.729957 87.377617 18.87212 -77.63784 -41.548389 -79.728973 -21.614727 4.387033
8540000000 -12.806121 87.175232 18.874321 -77.944237 -41.43856 -78.39431 -21.645468 3.9747949
8550000000 -12.858376 86.91729 18.876535 -78.244202 -41.407745 -79.2798 -21.654055 3.8057179
8560000000 -12.926281 86.691841 18.877956 -78.539482 -41.503071 -79.066101 -21.747187 3.401078
8570000000 -12.974423 86.433807 18.879454 -78.832893 -41.405319 -80.020432 -21.722227 3.3372374
8580000000 -13.031034 86.26181 18.881714 -79.136406 -41.407177 -80.135788 -21.793907 2.8788121
8590000000 -13.082701 86.051735 18.884249 -79.433067 -41.476311 -80.742111 -21.869711 2.6294887
8600000000 -13.133581 85.838646 18.886269 -79.735123 -41.362972 -80.605812 -21.910158 2.3770669
8610000000 -13.182522 85.753883 18.888409 -80.036194 -41.489567 -80.466797 -21.918091 2.2114382
8620000000 -13.246037 85.581345 18.889496 -80.335594 -41.311794 -81.377701 -21.984945 1.8499734
8630000000 -13.309522 85.431328 18.892504 -80.645477 -41.339607 -79.949356 -22.010843 1.5638783
8640000000 -13.369361 85.300461 18.894361 -80.952019 -41.214855 -81.96637 -21.978815 1.2347356
8650000000 -13.445394 85.161278 18.894451 -81.245186 -41.237217 -81.341553 -22.009825 1.1276482
8660000000 -13.522349 84.951546 18.897337 -81.548325 -41.262302 -82.171959 -22.052906 0.96413082
8670000000 -13.596435 84.647171 18.899046 -81.852249 -41.111313 -82.885429 -22.006397 0.37866864
8680000000 -13.667158 84.473129 18.901379 -82.152908 -41.211014 -81.826904 -22.105417 0.15261333
8690000000 -13.73958 84.21936 18.903263 -82.457962 -41.216583 -83.051414 -22.104744 0.20189688
8700000000 -13.813664 83.935104 18.90513 -82.751488 -41.054024 -84.124977 -22.135302 0.14600974
8710000000 -13.872557 83.662987 18.907469 -83.054955 -41.073917 -82.947174 -22.112774 -0.29137015
8720000000 -13.931388 83.395119 18.910206 -83.356636 -41.127434 -83.046219 -22.120897 -0.11117012
8730000000 -13.992791 83.159897 18.912498 -83.660767 -41.110283 -83.351097 -22.181564 -0.92357731
8740000000 -14.043566 82.987206 18.914022 -83.968285 -40.951019 -83.875916 -22.202766 -1.0922723
8750000000 -14.112035 82.764839 18.917007 -84.28138 -40.947651 -84.324059 -22.246004 -1.3430048
8760000000 -14.186257 82.589241 18.917795 -84.58268 -41.039165 -84.372276 -22.294319 -1.431729
8770000000 -14.255647 82.412636 18.919514 -84.886299 -41.008121 -85.045975 -22.258757 -1.6537648
8780000000 -14.332183 82.236191 18.921412 -85.186256 -40.941753 -85.662582 -22.33987 -1.8806108
8790000000 -14.413695 81.996147 18.922861 -85.492661 -40.85717 -84.572083 -22.349628 -2.0008345
8800000000 -14.498756 81.824539 18.923597 -85.805786 -40.976929 -86.220467 -22.391579 -2.2746475
8810000000 -14.585148 81.575508 18.926182 -86.109276 -40.77042 -86.677948 -22.439217 -2.3076243
8820000000 -14.662722 81.239861 18.927504 -86.407463 -40.848274 -86.261765 -22.404745 -2.5159497
8830000000 -14.736978 81.031525 18.92934 -86.720604 -40.911491 -86.467491 -22.43854 -2.6722047
8840000000 -14.812667 80.645668 18.931448 -87.028374 -40.879051 -86.659958 -22.503933 -3.1840794
8850000000 -14.882317 80.384453 18.933466 -87.332497 -40.797138 -87.106117 -22.549772 -3.392499
8860000000 -14.950505 80.097504 18.935133 -87.636734 -40.894341 -87.805153 -22.557259 -3.5872555
8870000000 -15.028793 79.862488 18.937004 -87.944344 -40.697712 -87.188339 -22.587328 -3.7623847
8880000000 -15.102621 79.602554 18.939226 -88.242569 -40.892216 -87.712059 -22.656029 -3.6659176
8890000000 -15.180157 79.420738 18.9408 -88.55407 -40.741329 -88.383881 -22.651819 -4.0319695
8900000000 -15.256631 79.176224 18.941261 -88.871063 -40.569988 -88.865784 -22.672331 -4.3897476
8910000000 -15.335675 78.991264 18.942995 -89.182037 -40.679974 -88.3806 -22.67264 -4.7041049
8920000000 -15.437958 78.768349 18.944628 -89.487534 -40.629635 -89.139908 -22.696995 -4.9604673
8930000000 -15.529634 78.489151 18.946287 -89.796272 -40.713749 -88.90229 -22.705015 -5.3603897
8940000000 -15.637622 78.19973 18.948284 -90.099243 -40.538391 -89.82579 -22.613861 -5.5749483
8950000000 -15.725848 77.841621 18.949617 -90.400269 -40.575962 -89.63839 -22.653063 -5.2200971
8960000000 -15.815694 77.447815 18.951378 -90.714813 -40.543709 -89.924843 -22.676626 -5.6638746
8970000000 -15.89884 76.977936 18.952337 -91.012802 -40.558956 -91.101906 -22.687941 -5.7152286
8980000000 -15.986013 76.66729 18.954823 -91.324524 -40.540188 -90.660606 -22.691301 -5.705039
8990000000 -16.062349 76.281334 18.95583 -91.635056 -40.452457 -90.700432 -22.698595 -5.8843665
9000000000 -16.145567 75.951332 18.958588 -91.94294 -40.469086 -90.892761 -22.741886 -6.1741505
9010000000 -16.223726 75.619049 18.959213 -92.266014 -40.432625 -91.003204 -22.761896 -6.1817331
9020000000 -16.326113 75.394997 18.960453 -92.572243 -40.454361 -92.151421 -22.740435 -6.1863799
9030000000 -16.413319 75.048317 18.961531 -92.884125 -40.419827 -92.630409 -22.743231 -6.495729
9040000000 -16.507431 74.75708 18.961775 -93.199341 -40.384113 -92.144516 -22.824659 -6.2984056
9050000000 -16.606342 74.356674 18.963659 -93.508888 -40.433071 -92.012634 -22.796263 -6.7359772
9060000000 -16.715454 74.03685 18.964743 -93.823608 -40.323124 -92.899849 -22.801102 -6.601851
9070000000 -16.823679 73.58429 18.967058 -94.128647 -40.300354 -93.097328 -22.809414 -6.9020452
9080000000 -16.928202 73.158249 18.967539 -94.444725 -40.338223 -93.636192 -22.787983 -7.1130447
9090000000 -17.026739 72.688766 18.968752 -94.759712 -40.293873 -93.779015 -22.852736 -7.3333845
9100000000 -17.122183 72.186043 18.970333 -95.074257 -40.280613 -94.005577 -22.838083 -7.4564333
9110000000 -17.211903 71.67366 18.972435 -95.381287 -40.278603 -94.406906 -22.863716 -8.0185766
9120000000 -17.308878 71.205391 18.972958 -95.696487 -40.110458 -94.499619 -22.87606 -7.8041058
9130000000 -17.368538 70.804855 18.974117 -96.011688 -40.324364 -94.375732 -22.858335 -7.9527335
9140000000 -17.47533 70.390121 18.974167 -96.324776 -40.080624 -94.860977 -22.86895 -7.9548874
9150000000 -17.565901 70.030884 18.976173 -96.629211 -40.094116 -95.016762 -22.902815 -8.2397785
9160000000 -17.670307 69.683029 18.977467 -96.949547 -40.042263 -94.726028 -22.84199 -8.3397417
9170000000 -17.758846 69.201355 18.977787 -97.264275 -40.168945 -95.83136 -22.878107 -8.5293922
9180000000 -17.871754 68.930664 18.978437 -97.585648 -40.017731 -95.820473 -22.860474 -8.5053253
9190000000 -17.978359 68.406479 18.979645 -97.900871 -40.038105 -96.252472 -22.830193 -8.0357971
9200000000 -18.111414 67.914116 18.979946 -98.21431 -40.006664 -96.958794 -22.737242 -8.2523279
9210000000 -18.228556 67.38372 18.98173 -98.525955 -40.056328 -96.855301 -22.86466 -8.4394903
9220000000 -18.352823 66.806122 18.982922 -98.841454 -39.990562 -97.479721 -22.861858 -8.4899311
9230000000 -18.459589 66.151268 18.98494 -99.15168 -39.999294 -97.97847 -22.835117 -8.6398535
9240000000 -18.556791 65.539398 18.984907 -99.464798 -39.9431 -98.532021 -22.872137 -8.2953901
9250000000 -18.657364 64.831299 18.986897 -99.775475 -40.016735 -98.014572 -22.820044 -8.7797203
9260000000 -18.752213 64.234512 18.986441 -100.08997 -39.995377 -98.282204 -22.81197 -9.060524
9270000000 -18.84409 63.709396 18.987352 -100.40649 -39.873535 -97.721764 -22.882399 -9.0482006
9280000000 -18.919876 63.201271 18.988939 -100.71938 -39.909954 -98.590714 -22.871222 -8.8870735
9290000000 -19.017521 62.704102 18.988604 -101.03557 -39.947205 -99.332001 -22.796776 -9.0894833
9300000000 -19.131674 62.206688 18.989599 -101.3481 -39.907398 -100.23415 -22.824898 -9.2756262
9310000000 -19.245502 61.672646 18.990637 -101.65681 -39.82724 -100.03759 -22.783695 -9.3152456
9320000000 -19.379423 61.223629 18.99279 -101.97373 -39.815399 -100.51301 -22.837963 -9.4275799
9330000000 -19.491785 60.652557 18.993244 -102.29233 -39.85556 -101.07088 -22.850657 -9.1601858
9340000000 -19.623232 59.89238 18.993736 -102.59879 -39.806427 -100.80423 -22.712076 -9.4701939
9350000000 -19.753931 59.160053 18.994648 -102.91747 -39.762138 -100.90317 -22.72916 -9.5823469
9360000000 -19.868359 58.336864 18.995695 -103.23065 -39.772285 -101.65788 -22.70332 -9.3369379
9370000000 -19.985386 57.487881 18.996624 -103.54655 -39.665882 -101.72842 -22.70842 -9.1486187
9380000000 -20.070837 56.617123 18.997154 -103.8642 -39.674152 -102.75057 -22.735601 -9.2248373
9390000000 -20.179983 55.724606 18.997423 -104.18512 -39.628231 -102.02988 -22.701614 -9.4286747
9400000000 -20.271879 54.943943 18.996685 -104.49478 -39.567501 -102.26811 -22.667955 -9.0252113
9410000000 -20.360069 54.284824 18.997534 -104.81261 -39.661777 -102.65102 -22.64432 -9.3904295
9420000000 -20.459173 53.520267 18.997879 -105.12733 -39.644142 -102.62338 -22.633133 -9.593895
9430000000 -20.558582 52.753166 18.99964 -105.44156 -39.465515 -103.16862 -22.597128 -9.3050232
9440000000 -20.693613 52.103027 18.999523 -105.76154 -39.433727 -103.98999 -22.595348 -9.3965931
9450000000 -20.784416 51.46616 18.998833 -106.07779 -39.659424 -104.12752 -22.627926 -8.7619438
9460000000 -20.917629 50.625027 18.999975 -106.39195 -39.497002 -104.73457 -22.583094 -8.7402735
9470000000 -21.051828 49.599525 18.999554 -106.7187 -39.572639 -103.83145 -22.544821 -9.4091759
9480000000 -21.159346 48.681217 18.999161 -107.02732 -39.45303 -104.68011 -22.5555 -9.348197
9490000000 -21.259764 47.526604 18.999577 -107.34637 -39.465679 -106.07346 -22.492847 -9.0740919
9500000000 -21.376497 46.387566 18.999384 -107.6665 -39.489136 -105.59619 -22.519541 -8.9717865
9510000000 -21.469179 45.407391 19.001162 -107.98145 -39.471592 -105.66847 -22.478537 -9.2133436
9520000000 -21.538895 44.195137 19.001806 -108.30208 -39.433239 -106.4447 -22.448439 -9.1496782
9530000000 -21.61582 43.337151 19.002468 -108.62447 -39.355301 -106.30763 -22.428917 -9.4679785
9540000000 -21.703674 42.476517 19.003162 -108.94422 -39.365997 -106.68827 -22.413025 -9.0970497
9550000000 -21.775749 41.40081 19.003622 -109.26422 -39.25835 -106.82486 -22.316977 -9.1471376
9560000000 -21.857817 40.604439 19.004095 -109.58555 -39.267288 -107.64896 -22.284235 -9.1302423
9570000000 -21.937836 39.701424 19.004034 -109.89379 -39.320763 -108.02229 -22.237606 -9.0539055
9580000000 -22.0516 38.702515 19.003546 -110.21091 -39.258961 -107.52065 -22.238138 -8.8650074
9590000000 -22.148714 37.599571 19.004934 -110.53309 -39.248367 -107.86038 -22.207401 -8.6915789
9600000000 -22.247164 36.366558 19.00285 -110.85239 -39.258499 -108.22137 -22.196217 -8.8338385
9610000000 -22.362474 35.113213 19.00263 -111.17123 -39.282104 -108.57034 -22.175806 -8.6785469
9620000000 -22.455658 33.823578 19.002048 -111.4857 -39.255886 -109.21841 -22.153282 -8.7108622
9630000000 -22.511097 32.370125 19.00301 -111.81051 -39.164314 -109.18223 -22.121172 -8.8609247
9640000000 -22.549461 31.198235 19.003771 -112.12624 -39.217438 -110.1198 -22.047407 -8.7744293
9650000000 -22.617493 29.869026 19.003422 -112.4594 -39.16293 -110.30814 -22.043993 -8.6106958
9660000000 -22.633888 28.754543 19.002777 -112.7674 -39.241978 -110.04914 -21.991955 -8.5375948
9670000000 -22.658199 27.680925 19.003923 -113.08458 -39.093277 -111.03603 -21.96166 -8.3839178
9680000000 -22.732634 26.565517 19.003105 -113.40256 -39.071266 -110.83887 -21.921476 -8.285121
9690000000 -22.756969 25.303122 19.003992 -113.71898 -39.23069 -111.08019 -21.905373 -7.8217783
9700000000 -22.838673 24.063002 19.003069 -114.03463 -39.131855 -111.5155 -21.839622 -8.2457447
9710000000 -22.904093 23.046276 19.002363 -114.35539 -39.056358 -112.48254 -21.816837 -8.4012403
9720000000 -22.961271 21.85104 19.001757 -114.68529 -39.004856 -112.05946 -21.781298 -7.894279
9730000000 -23.028936 20.459307 19.000505 -115.00521 -38.942692 -112.85381 -21.716568 -8.2305241
9740000000 -23.096851 18.936277 18.99947 -115.32734 -39.079021 -113.16194 -21.665848 -8.1192846
9750000000 -23.138134 17.705406 19.000406 -115.65015 -38.982182 -113.23886 -21.63538 -8.1271257
9760000000 -23.140129 16.279936 18.999109 -115.9582 -39.032555 -114.01357 -21.618572 -7.7918439
9770000000 -23.135696 14.743104 18.997772 -116.28285 -38.972557 -113.4097 -21.647697 -7.8867497
9780000000 -23.124414 13.453583 18.998823 -116.5927 -38.979809 -114.22327 -21.498249 -7.7632589
9790000000 -23.110384 12.295151 18.998007 -116.90828 -38.998047 -114.54412 -21.50201 -7.6985025
9800000000 -23.090294 11.128037 18.998074 -117.23325 -38.901569 -114.46549 -21.449696 -7.7412834
9810000000 -23.099117 10.121966 18.996552 -117.55754 -38.8783 -114.42089 -21.431118 -7.7910151
9820000000 -23.072308 9.0103426 18.996038 -117.87508 -38.875046 -115.32382 -21.394325 -7.3742881
9830000000 -23.109056 7.8527966 18.996168 -118.20277 -38.882534 -115.51876 -21.337353 -7.4384313
9840000000 -23.132412 6.6455579 18.994453 -118.51778 -38.863365 -115.91882 -21.252462 -7.1521292
9850000000 -23.15391 5.4216871 18.993345 -118.84005 -38.819984 -115.6999 -21.242905 -6.8561158
9860000000 -23.164146 4.0810032 18.992767 -119.15611 -38.812908 -116.92229 -21.249338 -6.7801905
9870000000 -23.166195 2.7406971 18.992453 -119.47315 -38.76445 -115.83034 -21.174784 -6.9306412
9880000000 -23.138416 1.2454264 18.990587 -119.78801 -38.731667 -116.66063 -21.154924 -6.4481058
9890000000 -23.081924 0.10218994 18.991392 -120.11083 -38.776196 -117.87486 -21.081032 -6.8383579
9900000000 -23.029644 -1.2701633 18.99078 -120.42487 -38.79858 -118.22112 -21.044283 -6.831399
9910000000 -22.99361 -2.3052788 18.989899 -120.74108 -38.697918 -117.49552 -21.09412 -6.596323
9920000000 -22.922737 -3.4338393 18.990158 -121.07009 -38.767368 -117.81008 -20.993547 -6.3862386
9930000000 -22.855492 -4.4404101 18.989073 -121.39943 -38.670238 -117.96682 -20.913712 -6.4728746
9940000000 -22.828018 -5.538578 18.987919 -121.71107 -38.72559 -119.11319 -20.875078 -6.75353
9950000000 -22.774748 -6.3861885 18.987797 -122.02457 -38.672714 -118.93389 -20.816456 -6.5767341
9960000000 -22.75662 -7.3455033 18.986763 -122.34385 -38.710171 -119.03255 -20.805544 -6.035006
9970000000 -22.726938 -8.2861786 18.98584 -122.66216 -38.630917 -119.21266 -20.715122 -6.2771883
9980000000 -22.70377 -9.4154854 18.985441 -122.97297 -38.60458 -119.90103 -20.639044 -5.7716484
9990000000 -22.672285 -10.571651 18.982515 -123.30303 -38.533043 -119.28637 -20.609823 -6.1317768
10000000000 -22.613762 -11.637279 18.982069 -123.62921 -38.613159 -120.22144 -20.565149 -6.2563801
10010000000 -22.534512 -12.66624 18.982306 -123.9528 -38.511105 -121.02715 -20.518562 -5.8150983
10020000000 -22.500277 -13.878753 18.981285 -124.27349 -38.580242 -120.73618 -20.440563 -5.48455
10030000000 -22.394091 -14.950161 18.980238 -124.59248 -38.586086 -121.63298 -20.412205 -5.5311813
10040000000 -22.33234 -15.857368 18.978674 -124.91296 -38.595646 -121.6359 -20.368971 -5.4478254
10050000000 -22.250792 -16.784231 18.976534 -125.23043 -38.460938 -122.48297 -20.2616 -5.7688069
10060000000 -22.171946 -17.47245 18.9771 -125.55314 -38.425217 -122.26197 -20.257792 -5.1772366
10070000000 -22.098663 -18.307623 18.976198 -125.86628 -38.5816 -122.57861 -20.190369 -5.0560727
10080000000 -22.043716 -19.039282 18.974604 -126.19057 -38.447868 -122.14397 -20.125381 -5.1888418
10090000000 -21.996801 -19.810703 18.973049 -126.50896 -38.454697 -122.9804 -20.081499 -5.1612129
10100000000 -21.931437 -20.511551 18.972084 -126.83415 -38.470211 -123.27613 -20.08931 -5.1483889
10110000000 -21.875975 -21.506298 18.969627 -127.1522 -38.38089 -123.48863 -20.070536 -4.8445153
10120000000 -21.803898 -22.349371 18.968838 -127.46616 -38.58556 -123.98839 -19.980671 -4.9034257
10130000000 -21.727236 -23.066053 18.968948 -127.79132 -38.422829 -124.31342 -19.882502 -4.6461673
10140000000 -21.670399 -23.934885 18.964167 -128.11288 -38.373768 -124.35212 -19.82235 -4.7374153
10150000000 -21.566202 -24.859535 18.963919 -128.43671 -38.314075 -125.40563 -19.81481 -4.8542829
10160000000 -21.497305 -25.507742 18.963764 -128.74634 -38.334324 -125.66586 -19.757135 -4.753026
10170000000 -21.416302 -26.026901 18.962379 -129.07278 -38.267757 -125.85892 -19.673298 -4.355433
10180000000 -21.342901 -26.588301 18.961807 -129.39177 -38.419392 -126.08827 -19.620293 -4.535079
10190000000 -21.277502 -27.081419 18.960669 -129.71849 -38.287315 -126.72961 -19.568422 -4.1057973
10200000000 -21.188103 -27.56526 18.959929 -130.03824 -38.267227 -126.58345 -19.509941 -4.1635504
10210000000 -21.120832 -28.259018 18.958126 -130.35753 -38.238274 -127.04541 -19.462961 -4.1846356
10220000000 -21.066008 -28.722794 18.955978 -130.68028 -38.225037 -127.33007 -19.407072 -4.0360947
10230000000 -21.027908 -29.268358 18.955618 -130.98955 -38.26392 -127.01973 -19.355307 -3.727715
10240000000 -20.970556 -29.858154 18.952971 -131.31186 -38.169659 -127.31672 -19.276442 -3.7468202
10250000000 -20.917685 -30.557949 18.952234 -131.62692 -38.132271 -127.92043 -19.225042 -3.5106845
10260000000 -20.848106 -31.230661 18.949572 -131.94385 -38.175175 -127.77328 -19.210606 -3.7319121
10270000000 -20.775951 -31.828625 18.947321 -132.27388 -38.144447 -128.17679 -19.148829 -3.7099967
10280000000 -20.700554 -32.656986 18.946899 -132.59692 -38.183334 -129.5598 -19.096533 -3.4438038
10290000000 -20.61857 -33.093895 18.945652 -132.91647 -38.155918 -128.97968 -19.084555 -3.6708019
10300000000 -20.523033 -33.567219 18.944094 -133.231 -38.132198 -129.83183 -18.952145 -3.316644
10310000000 -20.448599 -33.953117 18.942144 -133.55632 -38.104771 -129.80006 -18.911736 -2.7663217
10320000000 -20.368532 -34.411869 18.940632 -133.87953 -37.978222 -129.93765 -18.888479 -3.2119877
10330000000 -20.296577 -34.632343 18.938847 -134.20142 -38.026817 -130.76015 -18.81296 -3.1530793
10340000000 -20.232689 -35.021095 18.937307 -134.52039 -38.118114 -131.17381 -18.777901 -2.9532335
10350000000 -20.173922 -35.285393 18.936443 -134.84213 -38.018055 -130.52686 -18.698629 -2.8511741
10360000000 -20.116907 -35.727451 18.933975 -135.15698 -38.030045 -131.5788 -18.63114 -3.0034008
10370000000 -20.073221 -36.055897 18.931828 -135.4861 -38.055305 -131.43262 -18.596865 -3.0287342
10380000000 -20.020283 -36.537449 18.930723 -135.80211 -38.100895 -131.96997 -18.544048 -2.6294158
10390000000 -19.966379 -36.947632 18.928564 -136.131 -38.035267 -132.09142 -18.485653 -2.5020287
10400000000 -19.898878 -37.455425 18.927341 -136.44765 -37.841656 -132.12508 -18.415144 -2.3606489
10410000000 -19.846991 -37.862301 18.923296 -136.76419 -37.968872 -133.35599 -18.367874 -2.3178082
10420000000 -19.772366 -38.095844 18.921947 -137.08458 -37.934532 -132.55867 -18.320969 -1.979417
10430000000 -19.715597 -38.42207 18.921484 -137.39728 -37.961102 -132.84265 -18.243586 -2.0030208
10440000000 -19.656044 -38.659191 18.918936 -137.71399 -37.894852 -133.30588 -18.194939 -1.956418
10450000000 -19.600498 -38.895809 18.917192 -138.04221 -38.00301 -133.85313 -18.129534 -2.0368843
10460000000 -19.543861 -39.174797 18.915377 -138.36349 -37.894386 -134.56584 -18.113461 -2.0404685
10470000000 -19.507162 -39.512772 18.913582 -138.68631 -37.920422 -135.1926 -18.057192 -1.833982
10480000000 -19.449409 -39.65036 18.912262 -139.01273 -37.848885 -134.89941 -17.981508 -1.6114881
10490000000 -19.420139 -39.988979 18.911009 -139.32303 -37.811806 -135.48343 -17.953321 -1.5572348
10500000000 -19.391087 -40.372337 18.908951 -139.64554 -37.853603 -135.39517 -17.90761 -1.5153828
10510000000 -19.349369 -40.682919 18.908211 -139.97008 -37.851948 -135.58424 -17.808451 -1.5549749
10520000000 -19.297703 -41.013062 18.904518 -140.28503 -37.841866 -136.51326 -17.747868 -1.342397
10530000000 -19.235901 -41.435966 18.901878 -140.60684 -37.841518 -136.29311 -17.700638 -1.2879589
10540000000 -19.171749 -41.673515 18.90032 -140.9294 -37.785576 -137.44835 -17.699097 -1.1981164
10550000000 -19.1127 -42.138203 18.898205 -141.24706 -37.831455 -137.7085 -17.581764 -1.1685627
10560000000 -19.044428 -42.211159 18.895794 -141.56888 -37.785931 -138.06738 -17.597446 -1.0071969
10570000000 -18.98316 -42.336803 18.89323 -141.88591 -37.75478 -138.14784 -17.514656 -0.97167701
10580000000 -18.937048 -42.382282 18.893116 -142.22334 -37.800243 -137.88107 -17.421555 -0.83849227
10590000000 -18.895447 -42.592617 18.889771 -142.53882 -37.743244 -138.50739 -17.378969 -0.71711862
10600000000 -18.851925 -42.588364 18.887535 -142.85863 -37.643654 -138.87802 -17.364559 -0.56878018
10610000000 -18.822807 -42.6101 18.886194 -143.17632 -37.644463 -139.15529 -17.288528 -0.14964323
10620000000 -18.789476 -42.74551 18.883713 -143.49091 -37.691589 -139.34018 -17.232147 -0.41390496
10630000000 -18.773376 -42.881828 18.882618 -143.81094 -37.70274 -139.41205 -17.196159 -0.45735893
10640000000 -18.761532 -43.099152 18.879841 -144.1348 -37.715054 -139.60912 -17.128 -0.4303737
10650000000 -18.718134 -43.364445 18.876909 -144.45605 -37.624897 -140.61215 -17.080309 -0.42886811
10660000000 -18.684681 -43.522217 18.875273 -144.77895 -37.616291 -140.24971 -16.998051 0.0066887327
10670000000 -18.641556 -43.802658 18.871891 -145.09972 -37.553253 -141.0827 -16.983383 -0.085842364
10680000000 -18.602999 -43.988743 18.869026 -145.42584 -37.549934 -140.65749 -16.903234 0.085454389
10690000000 -18.571518 -44.145935 18.865934 -145.74115 -37.579613 -141.02678 -16.831137 0.14942135
10700000000 -18.537226 -44.331875 18.865059 -146.06364 -37.626595 -141.59061 -16.799942 0.2396711
10710000000 -18.486162 -44.372429 18.863586 -146.38393 -37.520393 -141.71756 -16.734056 0.40086713
10720000000 -18.440443 -44.465363 18.862156 -146.70625 -37.551411 -142.15077 -16.689785 0.72899878
10730000000 -18.405394 -44.440235 18.857933 -147.02747 -37.557362 -142.92548 -16.644646 0.53045648
10740000000 -18.391466 -44.453766 18.857302 -147.34572 -37.56715 -142.66077 -16.594763 0.84536731
10750000000 -18.368736 -44.5205 18.855005 -147.66197 -37.488987 -143.37085 -16.516655 0.91765141
10760000000 -18.356419 -44.651299 18.853573 -147.99847 -37.529751 -143.54063 -16.433125 0.90019107
10770000000 -18.345144 -44.696434 18.850693 -148.31114 -37.502541 -143.50772 -16.396378 1.1138465
10780000000 -18.319763 -44.817776 18.848352 -148.63196 -37.5149 -144.08498 -16.380699 1.1415117
10790000000 -18.296871 -44.95911 18.846359 -148.95166 -37.431297 -144.64665 -16.315184 1.3040639
10800000000 -18.292475 -45.057835 18.844847 -149.2673 -37.480019 -144.81941 -16.280388 1.2911376
10810000000 -18.260981 -45.257999 18.842567 -149.59027 -37.4566 -145.70155 -16.21563 1.5628216
10820000000 -18.224056 -45.378056 18.841187 -149.91217 -37.513992 -145.6664 -16.154709 1.6823157
10830000000 -18.194706 -45.458633 18.838383 -150.23624 -37.419193 -145.38696 -16.088692 1.8216953
10840000000 -18.16993 -45.50095 18.835417 -150.55829 -37.341881 -145.72514 -16.050259 1.7802826
10850000000 -18.128073 -45.568802 18.832733 -150.87712 -37.429981 -146.61855 -15.990799 1.8765814
10860000000 -18.10466 -45.482155 18.83128 -151.198 -37.367863 -146.80127 -15.9356 2.0846512
10870000000 -18.077471 -45.479801 18.827913 -151.51552 -37.212261 -147.09772 -15.8899 2.0518508
10880000000 -18.066267 -45.396141 18.824923 -151.8392 -37.290733 -146.96307 -15.821368 2.2661061
10890000000 -18.055124 -45.493492 18.823414 -152.15944 -37.270878 -148.0766 -15.763984 2.39783
10900000000 -18.041 -45.428665 18.820269 -152.48036 -37.267876 -148.00365 -15.730545 2.5279059
10910000000 -18.043644 -45.414589 18.818735 -152.79254 -37.320473 -147.98515 -15.677886 2.6031897
10920000000 -18.037066 -45.427216 18.816872 -153.12502 -37.305424 -148.49039 -15.60796 2.885241
10930000000 -18.031178 -45.494083 18.814056 -153.439 -37.293739 -149.11414 -15.571317 2.9108279
10940000000 -18.013012 -45.462612 18.810617 -153.75484 -37.280815 -148.98674 -15.524953 2.9762661
10950000000 -17.994415 -45.557522 18.80872 -154.08511 -37.302586 -149.05992 -15.460464 3.3078835
10960000000 -17.968159 -45.514839 18.806652 -154.39653 -37.218479 -149.21272 -15.421225 3.1570706
10970000000 -17.966217 -45.553745 18.804192 -154.71498 -37.270206 -150.07585 -15.372269 3.4541795
10980000000 -17.938826 -45.421116 18.801271 -155.03806 -37.215809 -149.69073 -15.30402 3.3918996
10990000000 -17.929752 -45.397018 18.800531 -155.35503 -37.152988 -150.69643 -15.261807 3.5339487
11000000000 -17.932207 -45.2924 18.798235 -155.68362 -37.198357 -150.90622 -15.222716 3.6462204
11010000000 -17.932863 -45.23399 18.7959 -156.00958 -37.218937 -151.56371 -15.168772 3.6673818
11020000000 -17.936983 -45.16082 18.793285 -156.33109 -37.174175 -151.80508 -15.091317 3.858814
11030000000 -17.938467 -45.087688 18.790367 -156.65169 -37.119133 -151.8322 -15.076187 4.0508261
11040000000 -17.948162 -44.973026 18.787598 -156.96667 -37.223255 -151.88449 -15.031172 4.0733104
11050000000 -17.949411 -45.015591 18.785242 -157.28619 -37.154758 -152.30482 -14.969117 4.2101607
11060000000 -17.959415 -44.98539 18.782526 -157.60805 -37.161209 -152.89388 -14.92803 4.4920378
11070000000 -17.951399 -45.025616 18.780123 -157.92918 -37.109333 -152.93355 -14.868685 4.5501165
11080000000 -17.945316 -44.994137 18.776396 -158.25633 -37.038982 -153.69731 -14.823424 4.6550288
11090000000 -17.93572 -44.936287 18.775272 -158.58124 -37.040001 -153.53944 -14.772102 4.6510577
11100000000 -17.922264 -44.924286 18.7717 -158.90092 -37.042828 -154.01518 -14.738118 4.8185768
11110000000 -17.920307 -44.795403 18.770199 -159.22707 -37.064896 -154.33501 -14.663767 4.9861093
11120000000 -17.925884 -44.703716 18.76656 -159.54483 -36.950253 -154.73721 -14.631688 5.0807042
11130000000 -17.92848 -44.48481 18.76388 -159.8761 -37.075569 -154.97107 -14.574867 5.1660852
11140000000 -17.937836 -44.290794 18.761526 -160.19576 -36.989063 -155.23248 -14.52121 5.2810826
11150000000 -17.94453 -44.105591 18.759912 -160.50386 -36.930256 -155.17665 -14.489359 5.4856787
11160000000 -17.96277 -44.054142 18.756124 -160.84059 -36.960136 -155.81859 -14.41577 5.5160022
11170000000 -17.983044 -43.845364 18.755898 -161.15953 -36.975048 -156.17494 -14.383405 5.8242335
11180000000 -17.998411 -43.769493 18.752495 -161.4805 -36.953751 -156.42642 -14.347894 6.0060654
11190000000 -17.991997 -43.663044 18.749058 -161.7984 -36.972332 -156.56068 -14.277868 6.1026978
11200000000 -18.02688 -43.550877 18.746513 -162.13229 -36.954315 -156.91626 -14.226844 6.1380386
11210000000 -18.020205 -43.517063 18.743391 -162.45313 -37.019527 -157.15114 -14.177188 6.1649227
11220000000 -18.025486 -43.415768 18.741804 -162.77588 -36.96563 -157.47705 -14.136507 6.5305228
11230000000 -18.024702 -43.279003 18.739132 -163.08539 -36.935371 -157.56573 -14.080813 6.5270333
11240000000 -18.022532 -43.090126 18.7355 -163.40016 -36.881973 -157.66345 -14.064048 6.7821717
11250000000 -18.035812 -42.891579 18.733633 -163.72118 -36.876102 -157.92603 -13.994876 6.778223
11260000000 -18.044067 -42.659023 18.731394 -164.04091 -36.906303 -158.66057 -13.952535 6.9936624
11270000000 -18.056946 -42.412354 18.728304 -164.36308 -36.890781 -159.22156 -13.926216 7.1094689
11280000000 -18.066462 -42.13422 18.725985 -164.68408 -36.90823 -158.90459 -13.859674 7.2935877
11290000000 -18.09523 -41.968376 18.722834 -165.01271 -36.825535 -159.48456 -13.825996 7.3022518
11300000000 -18.129719 -41.789696 18.7208 -165.34367 -36.861038 -160.4967 -13.77008 7.4508581
11310000000 -18.148415 -41.588753 18.71833 -165.66196 -36.845081 -160.55563 -13.716769 7.5203867
11320000000 -18.168575 -41.305 18.715336 -165.98334 -36.842213 -160.53656 -13.663783 7.7477989
11330000000 -18.192171 -41.136097 18.711998 -166.29659 -36.80249 -161.09833 -13.633404 7.865469
11340000000 -18.211943 -40.922749 18.709822 -166.62297 -36.877483 -161.17633 -13.568541 7.9166093
11350000000 -18.223997 -40.651577 18.706059 -166.9415 -36.800552 -161.60716 -13.531794 8.1142082
11360000000 -18.230837 -40.400745 18.703773 -167.26784 -36.853489 -161.56558 -13.493348 8.2608776
11370000000 -18.250248 -40.159039 18.701109 -167.5899 -36.737148 -162.20477 -13.449823 8.4269867
11380000000 -18.270462 -39.878597 18.697397 -167.90977 -36.769882 -162.58676 -13.395162 8.5987387
11390000000 -18.282215 -39.530212 18.695425 -168.22733 -36.767521 -162.53993 -13.348057 8.7241373
11400000000 -18.30632 -39.258434 18.691364 -168.5533 -36.663509 -163.29254 -13.289903 8.7613134
11410000000 -18.353807 -38.862103 18.689535 -168.88152 -36.762081 -163.96971 -13.248492 8.9499407
11420000000 -18.370029 -38.593464 18.685183 -169.19757 -36.694828 -163.60272 -13.205779 9.1325159
11430000000 -18.403265 -38.300739 18.682318 -169.52173 -36.714176 -163.69836 -13.157607 9.2954254
11440000000 -18.437794 -38.061596 18.680315 -169.85025 -36.707237 -164.06033 -13.132896 9.4379492
11450000000 -18.465965 -37.782745 18.67709 -170.17398 -36.648846 -164.82811 -13.092542 9.4602137
11460000000 -18.4844 -37.522598 18.674658 -170.49016 -36.687283 -164.80968 -13.034927 9.6384087
11470000000 -18.505541 -37.30381 18.671453 -170.81453 -36.645336 -165.21175 -12.990379 9.6036425
11480000000 -18.516563 -36.981689 18.668968 -171.13715 -36.610874 -165.40327 -12.947392 9.8490734
11490000000 -18.533031 -36.584713 18.663927 -171.4503 -36.572727 -165.61377 -12.895827 9.9911137
11500000000 -18.554108 -36.176342 18.660383 -171.77353 -36.677612 -166.18095 -12.83576 9.9910383
11510000000 -18.578461 -35.759907 18.65663 -172.10118 -36.609451 -166.14407 -12.804267 10.120519
11520000000 -18.604252 -35.371315 18.654522 -172.42224 -36.579983 -166.68472 -12.759704 10.326195
11530000000 -18.632113 -34.761204 18.649401 -172.75203 -36.604008 -167.31798 -12.687667 10.440463
11540000000 -18.661074 -34.330341 18.647774 -173.07384 -36.641655 -167.58218 -12.652409 10.537493
11550000000 -18.722946 -33.861233 18.644213 -173.39868 -36.576084 -168.12546 -12.600942 10.728058
11560000000 -18.751301 -33.4767 18.640186 -173.72794 -36.604763 -167.57764 -12.557203 10.904456
11570000000 -18.809498 -33.06583 18.638548 -174.05525 -36.580624 -168.17938 -12.515416 11.113197
11580000000 -18.843742 -32.652477 18.635172 -174.37645 -36.53363 -168.54575 -12.469868 11.397254
11590000000 -18.884871 -32.338909 18.632336 -174.70354 -36.548344 -169.06931 -12.427596 11.485579
11600000000 -18.917044 -31.928362 18.62771 -175.01907 -36.525768 -169.19087 -12.372994 11.539846
11610000000 -18.946505 -31.492746 18.625355 -175.34854 -36.51524 -169.88564 -12.34892 11.859258
11620000000 -18.960651 -31.018604 18.62241 -175.67241 -36.555748 -170.30672 -12.297965 11.902254
11630000000 -18.972137 -30.706724 18.619307 -175.99077 -36.456585 -169.59435 -12.261044 11.948399
11640000000 -18.994095 -30.064632 18.615641 -176.31723 -36.477303 -170.17046 -12.224442 12.11699
11650000000 -19.005749 -29.543179 18.612619 -176.64162 -36.465645 -170.58211 -12.192094 12.301215
11660000000 -19.034487 -29.003849 18.609118 -176.95914 -36.477882 -170.82933 -12.13663 12.391782
11670000000 -19.069214 -28.423067 18.605701 -177.28348 -36.394989 -171.14888 -12.103507 12.47466
11680000000 -19.098661 -27.800064 18.602831 -177.6123 -36.418472 -171.27699 -12.036106 12.615542
11690000000 -19.149033 -27.170673 18.597816 -177.92383 -36.406769 -171.95749 -12.006717 12.731337
11700000000 -19.196177 -26.589525 18.594687 -178.26297 -36.384171 -172.41464 -11.959879 12.922044
11710000000 -19.228651 -26.027395 18.591778 -178.56323 -36.426735 -172.53151 -11.932398 13.036572
11720000000 -19.265032 -25.496008 18.589491 -178.89812 -36.424725 -172.57748 -11.87419 13.168422
11730000000 -19.292637 -24.987509 18.584599 -179.22162 -36.395718 -173.19298 -11.825928 13.28861
11740000000 -19.31633 -24.352949 18.580936 -179.54787 -36.381714 -173.63989 -11.788918 13.418195
11750000000 -19.342365 -23.85659 18.577724 -179.86855 -36.366348 -173.21687 -11.741144 13.555727
11760000000 -19.359819 -23.206728 18.573399 179.80844 -36.376724 -174.11583 -11.706312 13.648629
11770000000 -19.37462 -22.594353 18.570122 179.48842 -36.390755 -174.59784 -11.650103 13.888926
11780000000 -19.386921 -21.929129 18.565985 179.17253 -36.357086 -174.62744 -11.606442 13.91991
11790000000 -19.403551 -21.278027 18.562473 178.85106 -36.332928 -174.74051 -11.570549 14.12491
11800000000 -19.440456 -20.525824 18.559219 178.52565 -36.265224 -175.16348 -11.515277 14.162705
11810000000 -19.45977 -19.794897 18.556137 178.20242 -36.306656 -175.86916 -11.478454 14.308592
11820000000 -19.481377 -19.088396 18.552954 177.87436 -36.308552 -175.48816 -11.447554 14.54382
11830000000 -19.529533 -18.315933 18.548145 177.54814 -36.248058 -176.23625 -11.402916 14.665466
11840000000 -19.548056 -17.802961 18.544502 177.21861 -36.216297 -176.23453 -11.345055 14.768691
11850000000 -19.567137 -17.030186 18.540169 176.90889 -36.247028 -177.13252 -11.316386 14.924562
11860000000 -19.581228 -16.34325 18.536636 176.58835 -36.247673 -177.26234 -11.264127 15.034017
11870000000 -19.58568 -15.722757 18.53153 176.26378 -36.275764 -177.68059 -11.226899 15.241164
11880000000 -19.591326 -14.992556 18.527693 175.94537 -36.254742 -178.06607 -11.193101 15.302481
11890000000 -19.603662 -14.351063 18.524157 175.62706 -36.233421 -178.22534 -11.130341 15.369187
11900000000 -19.588726 -13.556988 18.520939 175.30766 -36.223267 -178.13075 -11.111907 15.464988
11910000000 -19.606817 -12.702394 18.51685 174.97585 -36.22736 -178.72546 -11.067624 15.624039
11920000000 -19.59083 -11.968067 18.513058 174.65631 -36.198215 -178.39636 -11.018578 15.839636
11930000000 -19.601122 -11.029828 18.508335 174.32907 -36.194962 -178.95996 -10.968451 15.997859
11940000000 -19.6201 -10.06673 18.505117 174.00577 -36.175373 -179.69408 -10.94106 16.129385
11950000000 -19.630823 -9.2579565 18.499699 173.68684 -36.172966 -179.94337 -10.888123 16.208481
11960000000 -19.636034 -8.5568247 18.496542 173.3683 -36.215862 -179.98116 -10.842501 16.397564
11970000000 -19.653658 -7.7735834 18.493652 173.04033 -36.164585 179.88754 -10.824656 16.49791
11980000000 -19.657341 -6.9304085 18.48946 172.72823 -36.107792 179.30724 -10.769627 16.638626
11990000000 -19.659472 -6.2680736 18.485525 172.41365 -36.227341 178.6702 -10.737947 16.709805
12000000000 -19.650211 -5.5094471 18.481157 172.08838 -36.08662 178.6983 -10.689999 16.86702
12010000000 -19.647739 -4.7444296 18.476816 171.7623 -36.139908 178.42709 -10.663793 17.037954
12020000000 -19.643187 -4.0052385 18.472858 171.44295 -36.092461 177.89656 -10.618731 17.184021
12030000000 -19.600796 -3.2632093 18.468063 171.117 -36.101639 178.08824 -10.576507 17.221289
12040000000 -19.577259 -2.3406646 18.464418 170.79375 -36.112019 177.32254 -10.548066 17.409227
12050000000 -19.568892 -1.4571553 18.459206 170.47256 -36.069214 176.96448 -10.491437 17.5807
12060000000 -19.535336 -0.67214912 18.456633 170.15622 -36.05629 176.70096 -10.460547 17.653646
12070000000 -19.509602 0.2525422 18.452871 169.83696 -36.078144 176.28976 -10.426278 17.773571
12080000000 -19.494196 1.1124622 18.450909 169.51659 -36.016502 175.77069 -10.389215 17.959005
12090000000 -19.465023 1.9466872 18.447012 169.19429 -36.041718 176.16441 -10.352021 18.041119
12100000000 -19.438503 2.8098447 18.443253 168.86748 -35.989368 175.59662 -10.321467 18.090046
12110000000 -19.418177 3.6593149 18.438824 168.54169 -36.051064 175.38187 -10.286633 18.258701
12120000000 -19.401209 4.3766465 18.434582 168.21269 -36.008553 174.82181 -10.24875 18.315065
12130000000 -19.376955 5.2910204 18.430298 167.88416 -36.019863 174.03122 -10.20803 18.461397
12140000000 -19.357159 5.9101753 18.425949 167.57152 -36.033901 174.46638 -10.174441 18.540125
12150000000 -19.311979 6.6969662 18.420649 167.25067 -35.960758 174.30124 -10.12646 18.597792
12160000000 -19.28293 7.4300566 18.417456 166.93774 -35.999168 173.6584 -10.088542 18.718256
12170000000 -19.23155 8.2579355 18.414328 166.6127 -35.899769 173.13107 -10.047525 18.777618
12180000000 -19.172014 8.9748459 18.409178 166.29759 -36.043926 173.23692 -10.009975 18.954885
12190000000 -19.134827 9.7735538 18.406521 165.97116 -35.967789 172.80699 -9.9735746 19.059969
12200000000 -19.082464 10.60246 18.401344 165.64748 -35.93959 172.8063 -9.925559 19.20186
12210000000 -19.038153 11.434551 18.398355 165.32767 -35.948822 172.06647 -9.9117613 19.315754
12220000000 -18.983219 12.247771 18.393953 165.00093 -35.955349 171.75952 -9.8706512 19.465017
12230000000 -18.939781 13.03821 18.38797 164.68938 -35.894032 171.97845 -9.8268185 19.598717
12240000000 -18.888601 13.840541 18.382467 164.36757 -35.914848 170.94086 -9.7857943 19.65266
12250000000 -18.848063 14.472633 18.379904 164.04338 -35.938255 171.2412 -9.754179 19.796471
12260000000 -18.795137 15.254598 18.375961 163.72639 -35.844784 170.53851 -9.7298126 19.926491
12270000000 -18.751625 15.878334 18.372608 163.4003 -35.87323 170.23476 -9.6857519 20.017881
12280000000 -18.691149 16.514433 18.367582 163.09073 -35.842331 169.88631 -9.6604786 20.069616
12290000000 -18.6341 17.122486 18.363745 162.77336 -35.890133 169.78961 -9.6233368 20.161276
12300000000 -18.556578 17.767469 18.359648 162.44855 -35.879417 169.60243 -9.5964069 20.254351
12310000000 -18.489811 18.447424 18.354475 162.13205 -35.845325 169.4879 -9.5450153 20.388338
12320000000 -18.421856 19.145657 18.349701 161.8168 -35.824375 168.99327 -9.5087538 20.41647
12330000000 -18.352591 19.843336 18.344908 161.49504 -35.812794 168.78291 -9.4778662 20.514277
12340000000 -18.283674 20.561945 18.341181 161.1743 -35.852234 168.96512 -9.4588823 20.617531
12350000000 -18.215185 21.297691 18.335979 160.86621 -35.831154 168.21497 -9.4161501 20.741945
12360000000 -18.145624 21.987133 18.333021 160.53816 -35.879177 167.52258 -9.3802271 20.827202
12370000000 -18.101185 22.639811 18.328173 160.22733 -35.764774 167.58266 -9.3438654 20.850685
12380000000 -18.054182 23.194578 18.324738 159.903 -35.821144 167.45334 -9.3308287 20.998293
12390000000 -17.980829 23.838999 18.319387 159.57394 -35.818253 166.40384 -9.2826767 21.089951
12400000000 -17.93718 24.392687 18.314262 159.2594 -35.742802 167.01218 -9.2388868 21.229584
12410000000 -17.856495 24.93412 18.310249 158.94524 -35.748463 166.27975 -9.2187805 21.311134
12420000000 -17.790455 25.402328 18.304554 158.63287 -35.792843 166.09218 -9.1839991 21.316133
12430000000 -17.703999 25.830378 18.301414 158.32263 -35.796272 166.01529 -9.1448011 21.40004
12440000000 -17.629545 26.43586 18.294933 157.99792 -35.729507 165.62849 -9.105423 21.502516
12450000000 -17.544842 26.93219 18.292025 157.68965 -35.767796 165.55151 -9.0779696 21.573017
12460000000 -17.451319 27.502968 18.287468 157.3652 -35.770496 164.72939 -9.0512123 21.792547
12470000000 -17.390398 28.106398 18.282455 157.05589 -35.744198 165.12738 -9.010541 21.77043
12480000000 -17.309271 28.734951 18.278482 156.72852 -35.688129 164.37781 -8.993187 21.933317
12490000000 -17.231058 29.306194 18.273777 156.41864 -35.701473 163.99786 -8.9648857 21.938871
12500000000 -17.168152 29.886511 18.269304 156.10713 -35.670082 163.47737 -8.9304237 22.142103
12510000000 -17.11231 30.384605 18.264154 155.7883 -35.734512 163.07437 -8.9043074 22.146269
12520000000 -17.050901 30.913395 18.25979 155.4613 -35.693256 162.90596 -8.8692179 22.202787
12530000000 -16.990376 31.326109 18.255381 155.15549 -35.660378 163.21338 -8.8394003 22.333761
12540000000 -16.936741 31.780014 18.251162 154.84132 -35.674923 162.22887 -8.8031178 22.437931
12550000000 -16.862539 32.206688 18.246529 154.5249 -35.669418 162.14453 -8.7772141 22.352694
12560000000 -16.785751 32.535004 18.242077 154.21158 -35.701824 161.56468 -8.756341 22.540606
12570000000 -16.704821 32.919449 18.237038 153.88664 -35.63237 161.45912 -8.7174778 22.665842
12580000000 -16.630976 33.353603 18.232464 153.57597 -35.586597 161.45232 -8.6926842 22.688517
12590000000 -16.552023 33.654438 18.229843 153.26781 -35.715321 161.07881 -8.676568 22.76973
12600000000 -16.459507 34.177528 18.222052 152.95166 -35.566177 160.46378 -8.6362476 22.844952
12610000000 -16.388914 34.606941 18.219088 152.63618 -35.645374 160.09969 -8.6076841 23.002857
12620000000 -16.316748 35.066914 18.213671 152.32143 -35.598087 160.11716 -8.5814562 23.07139
12630000000 -16.249439 35.474522 18.210085 152.00529 -35.57185 159.68887 -8.5580673 23.107254
12640000000 -16.188303 35.944286 18.204998 151.68857 -35.621021 159.36794 -8.539732 23.216532
12650000000 -16.129089 36.319107 18.199968 151.38107 -35.591797 159.10689 -8.5157957 23.143679
12660000000 -16.069164 36.671581 18.196825 151.06683 -35.564816 158.73276 -8.4868774 23.267071
12670000000 -16.013294 37.02449 18.189734 150.7469 -35.555862 158.75673 -8.4599724 23.287292
12680000000 -15.952916 37.380924 18.186035 150.44223 -35.50602 158.4035 -8.4355659 23.407501
12690000000 -15.876225 37.58012 18.18154 150.13062 -35.522755 157.81755 -8.4143801 23.489872
12700000000 -15.81383 37.913982 18.176956 149.82466 -35.519154 157.96303 -8.39258 23.590445
12710000000 -15.741419 38.249889 18.170731 149.51099 -35.470287 157.73476 -8.356678 23.569466
12720000000 -15.665582 38.477898 18.167368 149.19731 -35.566341 157.0844 -8.3286333 23.616413
12730000000 -15.591137 38.804405 18.162224 148.88664 -35.530182 157.05891 -8.3021479 23.742662
12740000000 -15.522032 39.128349 18.157923 148.5775 -35.54044 156.26024 -8.2792034 23.763283
12750000000 -15.455695 39.542938 18.152657 148.27599 -35.486595 156.3011 -8.2601662 23.854422
12760000000 -15.392642 39.894844 18.148321 147.95621 -35.51038 155.88516 -8.2426577 23.918148
12770000000 -15.332199 40.215912 18.143347 147.64859 -35.438145 155.70671 -8.21276 24.022213
12780000000 -15.287477 40.434666 18.138424 147.33064 -35.585098 155.65321 -8.192049 23.946804
12790000000 -15.231898 40.780384 18.131319 147.02971 -35.428562 155.1225 -8.1755772 24.094479
12800000000 -15.168148 40.957119 18.129467 146.73027 -35.405952 154.90413 -8.1568298 24.137329
12810000000 -15.114588 41.166805 18.124813 146.41216 -35.432289 154.50177 -8.1317043 24.184149
12820000000 -15.051999 41.293095 18.121485 146.10959 -35.471855 153.96494 -8.1041393 24.2409
12830000000 -14.987551 41.503838 18.116852 145.80234 -35.39698 154.12344 -8.0709257 24.236006
12840000000 -14.915332 41.721466 18.114042 145.48784 -35.431667 153.75232 -8.0603685 24.408272
12850000000 -14.839253 41.943798 18.108082 145.18837 -35.495235 153.43224 -8.0389709 24.353205
12860000000 -14.773438 42.226002 18.103466 144.87862 -35.436989 152.94841 -8.0181942 24.438339
12870000000 -14.714216 42.545933 18.100718 144.57549 -35.440266 153.21039 -7.9970698 24.454315
12880000000 -14.641379 42.832802 18.095959 144.26692 -35.39938 152.39886 -7.9812131 24.527763
12890000000 -14.580788 43.187176 18.090826 143.95396 -35.333347 152.00269 -7.9488463 24.601305
12900000000 -14.53337 43.428043 18.087181 143.65269 -35.349689 151.67503 -7.943512 24.652727
12910000000 -14.486185 43.649643 18.082237 143.35316 -35.393417 151.40831 -7.9140368 24.644182
12920000000 -14.451816 43.893925 18.079546 143.04703 -35.346985 150.92615 -7.9013791 24.65884
12930000000 -14.398141 44.062584 18.07358 142.73535 -35.328087 150.1555 -7.8732715 24.754486
12940000000 -14.366052 44.219265 18.068367 142.4306 -35.338211 150.4689 -7.8618364 24.816141
12950000000 -14.321366 44.396988 18.065357 142.12263 -35.351761 150.6326 -7.8255181 24.830883
12960000000 -14.257331 44.544659 18.061882 141.82829 -35.32457 150.27426 -7.8201189 24.847467
12970000000 -14.191355 44.637691 18.05625 141.51868 -35.335323 149.68788 -7.8031931 24.953815
12980000000 -14.136645 44.837513 18.052271 141.22728 -35.294819 149.64426 -7.7846441 24.999575
12990000000 -14.072746 45.01881 18.048695 140.92181 -35.290924 149.14507 -7.777411 25.027605
13000000000 -14.017749 45.265461 18.044193 140.61064 -35.289501 149.09473 -7.7523751 25.047512
13010000000 -13.962975 45.495701 18.040152 140.30901 -35.256908 148.70699 -7.7372241 25.098267
13020000000 -13.915104 45.746292 18.034891 140.00494 -35.290829 148.46771 -7.7097273 25.124628
13030000000 -13.867036 45.922489 18.030849 139.69382 -35.240364 148.05539 -7.6997538 25.191376
13040000000 -13.827471 46.158615 18.02754 139.39397 -35.301357 147.50862 -7.6958203 25.200249
13050000000 -13.791171 46.389919 18.022984 139.09412 -35.203838 147.35271 -7.6665277 25.248878
13060000000 -13.766469 46.544525 18.019609 138.78975 -35.334888 147.17287 -7.6428084 25.230806
13070000000 -13.72127 46.72591 18.015671 138.48781 -35.215324 147.1823 -7.6342058 25.29714
13080000000 -13.679638 46.826088 18.01333 138.19179 -35.185055 146.44991 -7.6237378 25.344774
13090000000 -13.637725 46.876213 18.009476 137.89323 -35.264759 146.4632 -7.6151247 25.286848
13100000000 -13.592299 47.067013 18.005247 137.57623 -35.178181 146.32985 -7.599277 25.435871
13110000000 -13.547975 47.110836 18.001999 137.28841 -35.208492 146.07658 -7.5811033 25.447779
13120000000 -13.503492 47.260498 18.001219 136.98213 -35.199013 145.63559 -7.5839825 25.532881
13130000000 -13.459745 47.414555 17.994713 136.68648 -35.188046 145.04311 -7.5484619 25.514063
13140000000 -13.421026 47.630615 17.989868 136.36693 -35.168285 144.9588 -7.5425367 25.610172
13150000000 -13.385329 47.788685 17.985857 136.08054 -35.219494 144.8324 -7.5327358 25.543133
13160000000 -13.344224 48.007694 17.982368 135.7717 -35.120487 144.53032 -7.5253592 25.606962
13170000000 -13.313902 48.148964 17.979584 135.46809 -35.158428 144.33743 -7.5183544 25.576273
13180000000 -13.280211 48.294758 17.976954 135.16357 -35.073292 144.27423 -7.5017376 25.736336
13190000000 -13.245758 48.358761 17.973713 134.87566 -35.089054 143.87152 -7.4839153 25.737207
13200000000 -13.220824 48.437088 17.971155 134.57182 -35.150497 143.24207 -7.4746881 25.723335
13210000000 -13.190864 48.523853 17.967829 134.27124 -35.129738 143.463 -7.4545169 25.728373
13220000000 -13.138904 48.550747 17.964525 133.97351 -35.016838 142.39276 -7.4457412 25.836346
13230000000 -13.11003 48.654541 17.961189 133.67242 -35.092476 142.35979 -7.4429646 25.783092
13240000000 -13.07018 48.789185 17.959816 133.38354 -35.079098 142.04344 -7.4243431 25.78791
13250000000 -13.030461 48.957161 17.956253 133.08405 -35.075825 142.08691 -7.4182754 25.863619
13260000000 -12.99204 49.09935 17.9541 132.78258 -35.072006 141.57927 -7.4079542 25.890196
13270000000 -12.956991 49.296173 17.952261 132.48344 -35.013767 141.4406 -7.410512 25.996609
13280000000 -12.938363 49.415985 17.949774 132.18759 -35.066345 141.12051 -7.4049044 25.987833
13290000000 -12.904184 49.566944 17.947832 131.89104 -35.025269 140.40201 -7.395874 26.013678
13300000000 -12.890158 49.747219 17.943289 131.57848 -34.99332 140.71794 -7.3891678 26.074451
13310000000 -12.87189 49.823799 17.941206 131.28876 -35.014778 140.06798 -7.3890667 25.941082
13320000000 -12.853113 49.880447 17.93992 130.99451 -34.949627 140.0574 -7.3722534 26.082855
13330000000 -12.83689 49.984947 17.936985 130.70871 -35.011833 139.87579 -7.3643055 26.009651
13340000000 -12.818788 50.01725 17.933924 130.39529 -34.943371 139.56833 -7.3629742 26.038042
13350000000 -12.789917 50.003933 17.930182 130.09996 -34.960007 138.51488 -7.3633828 26.002304
13360000000 -12.765952 50.046581 17.930733 129.81158 -34.978935 138.86659 -7.3455892 26.090456
13370000000 -12.732367 50.103001 17.926867 129.52565 -34.952709 138.5858 -7.3422728 26.057062
13380000000 -12.689553 50.17469 17.926291 129.20824 -34.941334 138.15273 -7.3353944 26.054329
13390000000 -12.663698 50.335857 17.923222 128.90607 -34.891075 138.10446 -7.3309345 26.05401
13400000000 -12.636058 50.414028 17.920542 128.61441 -34.91013 137.7731 -7.3204961 26.0968
13410000000 -12.614925 50.546654 17.919426 128.31291 -34.934841 137.31628 -7.3174148 26.066765
13420000000 -12.595383 50.705395 17.91539 128.01608 -34.858967 137.25291 -7.3142972 26.190783
13430000000 -12.583557 50.835648 17.915205 127.72774 -34.89711 136.93384 -7.3037381 26.175623
13440000000 -12.570341 50.931927 17.914446 127.42368 -34.852947 136.80086 -7.3017936 26.216419
13450000000 -12.563931 51.019733 17.91313 127.12704 -34.88213 136.58624 -7.2926054 26.241758
13460000000 -12.549077 51.047897 17.910336 126.8327 -34.764626 135.83598 -7.2851253 26.191523
13470000000 -12.532105 51.104816 17.909143 126.52849 -34.818737 136.07816 -7.2815762 26.253897
13480000000 -12.517182 51.124126 17.907461 126.23366 -34.805767 135.50328 -7.2872562 26.255224
13490000000 -12.497159 51.092781 17.905874 125.94246 -34.841141 134.72968 -7.281877 26.291651
13500000000 -12.481632 51.158871 17.904478 125.65387 -34.796799 134.91611 -7.2907205 26.343529
13510000000 -12.455685 51.212078 17.903341 125.35864 -34.786751 134.71088 -7.2881846 26.336958
13520000000 -12.43911 51.320877 17.9049 125.06176 -34.834164 134.21703 -7.294322 26.278606
13530000000 -12.418143 51.386818 17.907503 124.76904 -34.809944 134.16287 -7.2893357 26.330395
13540000000 -12.401003 51.544621 17.904108 124.45978 -34.79549 133.99625 -7.2919507 26.297323
13550000000 -12.392902 51.60347 17.902185 124.16545 -34.736069 133.47865 -7.2917266 26.215763
13560000000 -12.380423 51.776497 17.901142 123.86528 -34.724655 133.46356 -7.2897272 26.286827
13570000000 -12.379519 51.81955 17.900623 123.56525 -34.682682 133.0648 -7.2954702 26.348291
13580000000 -12.371054 51.939491 17.899137 123.25871 -34.743187 132.71396 -7.2953663 26.260313
13590000000 -12.363453 51.98624 17.89978 122.95664 -34.663925 132.00449 -7.2921233 26.287668
13600000000 -12.358046 52.053188 17.896305 122.66667 -34.624489 132.35361 -7.2990537 26.261032
13610000000 -12.35226 52.10281 17.895891 122.37847 -34.658909 131.9839 -7.2874193 26.274433
13620000000 -12.343299 52.100315 17.896132 122.07857 -34.651413 131.44348 -7.2919555 26.279163
13630000000 -12.33791 52.192417 17.896643 121.78439 -34.660088 131.68597 -7.2978969 26.296988
13640000000 -12.321511 52.201687 17.893011 121.49617 -34.602837 130.94304 -7.29739 26.28334
13650000000 -12.323984 52.23032 17.895182 121.19424 -34.615574 130.7023 -7.3087254 26.311804
13660000000 -12.314251 52.358051 17.895582 120.8904 -34.617756 130.32835 -7.3069296 26.280735
13670000000 -12.31091 52.438049 17.893814 120.58882 -34.639324 130.25949 -7.3154044 26.304197
13680000000 -12.305167 52.537643 17.893257 120.29526 -34.647648 129.98657 -7.3262424 26.355011
13690000000 -12.302006 52.587597 17.894897 119.99558 -34.576679 129.55779 -7.3299532 26.418324
13700000000 -12.300551 52.64835 17.893301 119.68769 -34.567394 129.47092 -7.3272119 26.393545
13710000000 -12.307736 52.705391 17.893015 119.39323 -34.562477 128.56355 -7.3351884 26.460463
13720000000 -12.311101 52.74551 17.895609 119.10004 -34.53553 128.79526 -7.3448167 26.442656
13730000000 -12.315899 52.798634 17.895559 118.79572 -34.500313 128.38635 -7.3521686 26.417612
13740000000 -12.31243 52.865284 17.896616 118.49962 -34.531033 128.74255 -7.3632174 26.446831
13750000000 -12.310208 52.894527 17.898226 118.21053 -34.471062 128.18341 -7.3677382 26.364359
13760000000 -12.30693 52.861244 17.898645 117.90136 -34.442158 127.75816 -7.3784051 26.429157
13770000000 -12.302417 52.944374 17.898785 117.61445 -34.507172 127.62561 -7.4016356 26.33946
13780000000 -12.304762 53.024559 17.898558 117.30745 -34.496002 126.88373 -7.3898859 26.377058
13790000000 -12.302843 53.06567 17.899702 117.0032 -34.466843 126.67271 -7.4050035 26.373976
13800000000 -12.298727 53.186947 17.900141 116.69866 -34.390427 126.71042 -7.4148459 26.355694
13810000000 -12.298344 53.310631 17.902758 116.4079 -34.476765 126.67584 -7.4241772 26.353117
13820000000 -12.301659 53.419765 17.903416 116.11127 -34.420841 126.27782 -7.4367633 26.323357
13830000000 -12.313643 53.535423 17.903671 115.8002 -34.386501 125.53318 -7.4413438 26.294249
13840000000 -12.32607 53.573635 17.905178 115.50167 -34.308994 125.15602 -7.4449883 26.288618
13850000000 -12.340058 53.654015 17.90691 115.20935 -34.366764 124.9974 -7.4646049 26.322392
13860000000 -12.352057 53.688869 17.90794 114.89992 -34.321949 124.93625 -7.4622903 26.295467
13870000000 -12.362289 53.768845 17.909258 114.59443 -34.357685 124.90233 -7.4819207 26.278555
13880000000 -12.374418 53.738121 17.909761 114.29513 -34.307091 124.39375 -7.5003204 26.293186
13890000000 -12.391001 53.793461 17.91176 114.00735 -34.309086 123.98927 -7.5034304 26.24279
13900000000 -12.39099 53.851299 17.912365 113.6963 -34.31591 124.05822 -7.5160236 26.253529
13910000000 -12.389844 53.871323 17.914671 113.38834 -34.288677 123.75066 -7.5327864 26.202501
13920000000 -12.398079 53.97411 17.916685 113.09474 -34.277103 123.25896 -7.5466981 26.256964
13930000000 -12.409831 54.029247 17.91794 112.79919 -34.237003 123.23087 -7.5456619 26.249592
13940000000 -12.420378 54.105652 17.919271 112.49586 -34.302155 122.62841 -7.5715761 26.25263
13950000000 -12.430458 54.219643 17.919264 112.18588 -34.231178 122.56704 -7.5902743 26.245119
13960000000 -12.44635 54.310337 17.921616 111.89213 -34.196636 121.96877 -7.6005573 26.211782
13970000000 -12.461161 54.397869 17.923164 111.58475 -34.163895 121.81849 -7.6206441 26.227854
13980000000 -12.486897 54.500286 17.925804 111.27618 -34.197201 121.42599 -7.6453381 26.205976
13990000000 -12.50784 54.602158 17.927717 110.96371 -34.235207 121.41714 -7.6464715 26.267153
14000000000 -12.527569 54.643917 17.928898 110.66238 -34.174099 120.92324 -7.6670403 26.211926
14010000000 -12.550377 54.717091 17.933088 110.35962 -34.121094 120.74338 -7.6917911 26.146116
14020000000 -12.569988 54.725185 17.93561 110.04822 -34.106121 120.58153 -7.7067914 26.130445
14030000000 -12.592433 54.750225 17.937197 109.75324 -34.098366 119.87441 -7.7294192 26.090101
14040000000 -12.60154 54.821789 17.939682 109.44018 -34.143593 120.01598 -7.7524233 26.129171
14050000000 -12.624807 54.857388 17.939089 109.13964 -34.106133 119.40213 -7.7628675 25.974751
14060000000 -12.632146 54.927147 17.941109 108.83207 -34.081917 119.19925 -7.7766347 25.957212
14070000000 -12.650784 54.980846 17.942116 108.52821 -34.036324 118.68887 -7.8000455 25.94647
14080000000 -12.668937 55.084259 17.946714 108.21909 -34.011116 118.41693 -7.8080153 25.853579
14090000000 -12.688492 55.21434 17.94771 107.90943 -34.070004 118.42089 -7.8190355 25.945864
14100000000 -12.71547 55.310242 17.95055 107.59106 -33.960854 118.16804 -7.8418651 25.879862
14110000000 -12.742329 55.3797 17.952379 107.29 -34.004612 117.66068 -7.8515325 25.836561
14120000000 -12.773647 55.489861 17.954187 106.97971 -34.055889 117.10744 -7.8645706 25.900614
14130000000 -12.802807 55.555447 17.958002 106.67806 -33.987267 117.28858 -7.8933792 25.881674
14140000000 -12.830264 55.596081 17.960251 106.37209 -33.915344 116.73155 -7.9003344 25.866568
14150000000 -12.860327 55.624859 17.961617 106.0536 -33.948761 116.37664 -7.936779 25.84482
14160000000 -12.885431 55.707535 17.966824 105.75072 -33.925095 116.43029 -7.9481106 25.853348
14170000000 -12.909508 55.746006 17.968716 105.44361 -33.952454 116.13476 -7.9760427 25.883303
14180000000 -12.929752 55.789162 17.971199 105.11877 -33.941025 115.79463 -8.0111437 25.851755
14190000000 -12.952267 55.856758 17.975012 104.8095 -33.853443 115.42939 -8.0302629 25.820572
14200000000 -12.970886 55.982319 17.977596 104.49492 -33.899849 115.24581 -8.0400715 25.794823
14210000000 -13.001491 56.055763 17.979685 104.186 -33.808441 114.66039 -8.0734711 25.747576
14220000000 -13.017112 56.148975 17.98185 103.86809 -33.827579 114.81875 -8.1013565 25.735353
14230000000 -13.050863 56.2817 17.985083 103.54903 -33.816006 114.41611 -8.112606 25.688923
14240000000 -13.0803 56.395088 17.987005 103.24097 -33.796181 113.80374 -8.1385984 25.70249
14250000000 -13.119143 56.573586 17.990751 102.92568 -33.829758 113.47439 -8.1687098 25.647247
14260000000 -13.159112 56.659508 17.993628 102.60368 -33.789692 113.27648 -8.1871815 25.615114
14270000000 -13.199518 56.730412 17.99604 102.3017 -33.782848 113.27091 -8.21348 25.61174
14280000000 -13.241362 56.811794 17.999529 101.98863 -33.760197 112.8993 -8.2351866 25.545094
14290000000 -13.278232 56.843445 18.004667 101.67169 -33.706345 112.11305 -8.267869 25.476967
14300000000 -13.303249 56.915176 18.006594 101.36063 -33.698883 112.29507 -8.2789249 25.521797
14310000000 -13.339557 56.982193 18.009506 101.04177 -33.719173 111.83159 -8.3173418 25.551096
14320000000 -13.371754 57.082966 18.011002 100.72301 -33.721966 111.78071 -8.3411121 25.548969
14330000000 -13.404564 57.173752 18.01548 100.40537 -33.639305 111.20115 -8.3653126 25.492989
14340000000 -13.428116 57.338058 18.018394 100.09869 -33.6394 110.97083 -8.40411 25.458214
14350000000 -13.467738 57.491859 18.021593 99.788383 -33.584076 110.75455 -8.422596 25.482824
14360000000 -13.509197 57.631279 18.025127 99.451752 -33.56773 110.30036 -8.4469547 25.441927
14370000000 -13.552629 57.798443 18.029137 99.141373 -33.652309 110.0974 -8.4735813 25.345373
14380000000 -13.593534 57.907887 18.032242 98.819466 -33.634483 109.81892 -8.5080318 25.409294
14390000000 -13.643476 58.001556 18.036905 98.497055 -33.561203 109.14231 -8.534976 25.299395
14400000000 -13.690223 58.172607 18.039885 98.173759 -33.565521 109.17111 -8.5602703 25.330231
14410000000 -13.731656 58.238052 18.043047 97.857384 -33.565369 109.15649 -8.591032 25.245691
14420000000 -13.776791 58.314751 18.047628 97.55143 -33.518448 108.54091 -8.6217241 25.219664
14430000000 -13.824914 58.513111 18.050472 97.220757 -33.554256 107.94224 -8.6600599 25.125063
14440000000 -13.862123 58.556217 18.053265 96.895943 -33.514748 108.01759 -8.7013178 25.154228
14450000000 -13.898432 58.672905 18.057959 96.574455 -33.498043 107.8135 -8.7091732 25.123329
14460000000 -13.946338 58.831486 18.061457 96.249016 -33.455536 106.89663 -8.7565374 25.067423
14470000000 -13.989001 58.983234 18.064991 95.936386 -33.445732 106.79041 -8.7701387 25.052582
14480000000 -14.036613 59.079342 18.068239 95.60199 -33.450886 106.93353 -8.7937031 25.000843
14490000000 -14.087546 59.284405 18.07123 95.27655 -33.430107 106.36843 -8.8447447 25.064987
14500000000 -14.142292 59.383709 18.074093 94.953354 -33.380943 106.3647 -8.8628702 25.024462
14510000000 -14.197699 59.542252 18.076212 94.616081 -33.405434 105.90703 -8.8962336 24.963043
14520000000 -14.247869 59.686798 18.080803 94.285194 -33.416973 105.4133 -8.9330158 24.871822
14530000000 -14.30383 59.709721 18.082386 93.967773 -33.397247 105.26492 -8.9672451 24.93926
14540000000 -14.354001 59.764606 18.088495 93.639839 -33.323677 104.61182 -8.9942322 24.856571
14550000000 -14.405878 59.887733 18.09173 93.320732 -33.338467 104.34248 -9.0281439 24.871967
14560000000 -14.443918 59.981827 18.097126 92.986023 -33.374233 104.28014 -9.0501585 24.897213
14570000000 -14.483792 60.050404 18.098152 92.646828 -33.31308 103.76113 -9.0997877 24.85763
14580000000 -14.523248 60.195934 18.102825 92.335564 -33.310539 103.67657 -9.1296911 24.888252
14590000000 -14.560799 60.375118 18.105352 91.997559 -33.282604 103.44788 -9.1635523 24.824455
14600000000 -14.617806 60.629616 18.109039 91.670029 -33.220047 102.52966 -9.1906023 24.789156
14610000000 -14.660506 60.818363 18.111523 91.32058 -33.233166 102.61793 -9.235034 24.70706
14620000000 -14.713574 61.12299 18.115252 90.998436 -33.217976 102.36475 -9.2706318 24.765951
14630000000 -14.766143 61.315701 18.120232 90.653671 -33.220165 102.06142 -9.3084698 24.592524
14640000000 -14.836701 61.613888 18.123276 90.328949 -33.181835 101.70916 -9.3494968 24.650789
14650000000 -14.897798 61.759937 18.127533 89.997849 -33.216423 101.20522 -9.3830023 24.578325
14660000000 -14.970981 61.913895 18.131268 89.669113 -33.184212 101.19836 -9.4156704 24.652191
14670000000 -15.042416 61.976685 18.134056 89.335464 -33.165413 100.82114 -9.4473286 24.566866
14680000000 -15.099634 62.114807 18.138197 89.006035 -33.15509 100.46454 -9.4914474 24.475677
14690000000 -15.154346 62.22168 18.14069 88.665565 -33.145615 100.02828 -9.5209427 24.433218
14700000000 -15.207579 62.299152 18.143818 88.322632 -33.076736 99.517113 -9.5686169 24.499414
14710000000 -15.248519 62.467251 18.147175 87.985352 -33.08622 99.382088 -9.5976152 24.396513
14720000000 -15.293592 62.65519 18.151459 87.649185 -33.059471 99.04483 -9.6361942 24.3839
14730000000 -15.338566 62.878273 18.15605 87.316544 -33.058315 98.871902 -9.6498146 24.31889
14740000000 -15.386209 63.118053 18.158735 86.989677 -33.097744 98.659088 -9.7047777 24.372683
14750000000 -15.44653 63.415672 18.16346 86.652847 -33.057377 98.373253 -9.7357626 24.389652
14760000000 -15.516016 63.769009 18.168665 86.320374 -33.024166 97.785835 -9.7776089 24.368685
14770000000 -15.580824 64.039207 18.171028 85.976189 -33.019741 97.60273 -9.8251705 24.373884
14780000000 -15.667993 64.322998 18.173944 85.642479 -32.99194 97.216331 -9.8654556 24.376057
14790000000 -15.734911 64.493622 18.177986 85.301895 -32.981831 96.723915 -9.9094753 24.383158
14800000000 -15.810468 64.68824 18.1821 84.971062 -32.949577 96.761238 -9.9502573 24.267414
14810000000 -15.87783 64.834694 18.185888 84.622467 -32.972744 96.303627 -9.9920511 24.232113
14820000000 -15.939267 64.92083 18.188124 84.289574 -32.944298 96.16021 -10.032554 24.27491
14830000000 -16.002605 65.102516 18.191042 83.944847 -32.882122 95.645279 -10.090191 24.121815
14840000000 -16.051208 65.304016 18.194174 83.602776 -32.897087 95.507996 -10.137332 24.171944
14850000000 -16.106785 65.502068 18.198988 83.267639 -32.899921 94.762848 -10.15904 24.048885
14860000000 -16.150229 65.80014 18.202761 82.924881 -32.880947 94.467796 -10.199748 24.098007
14870000000 -16.206232 66.086899 18.206776 82.581543 -32.846649 94.557877 -10.242529 23.896229
14880000000 -16.264196 66.332443 18.211624 82.248955 -32.805286 93.899651 -10.274925 23.997406
14890000000 -16.323969 66.694771 18.213232 81.898773 -32.835697 93.516068 -10.302999 24.032883
14900000000 -16.402897 67.004631 18.214703 81.56118 -32.783333 93.516197 -10.354257 24.002293
14910000000 -16.471731 67.317665 18.21826 81.209785 -32.794735 92.909119 -10.40227 23.988483
14920000000 -16.525883 67.660843 18.221308 80.87825 -32.753422 92.215195 -10.442923 23.87936
14930000000 -16.597519 67.855591 18.224695 80.530998 -32.766796 92.255196 -10.49153 23.960358
14940000000 -16.673937 68.029716 18.226088 80.186066 -32.720901 92.072609 -10.524403 23.971514
14950000000 -16.72299 68.287018 18.228403 79.842888 -32.738182 91.607491 -10.569943 23.855934
14960000000 -16.786631 68.504311 18.232004 79.491997 -32.668667 91.620613 -10.621991 23.934507
14970000000 -16.841198 68.831268 18.236115 79.151459 -32.724548 91.084984 -10.649447 23.946144
14980000000 -16.898029 69.243317 18.237955 78.802757 -32.716496 90.74424 -10.693738 24.003635
14990000000 -16.955833 69.611839 18.239725 78.456963 -32.611347 90.223946 -10.746673 23.8887
15000000000 -17.013458 69.89473 18.244022 78.109955 -32.644089 90.25592 -10.792063 23.941086
15010000000 -17.078753 70.363541 18.247372 77.766075 -32.662937 89.896095 -10.83552 23.707182
15020000000 -17.162563 70.727669 18.248447 77.412003 -32.636841 89.601471 -10.887219 23.821777
15030000000 -17.247145 71.088318 18.253098 77.058914 -32.588982 88.929123 -10.919596 23.692282
15040000000 -17.317751 71.465569 18.254463 76.700127 -32.619453 88.973938 -10.953739 23.660738
15050000000 -17.409204 71.78154 18.256304 76.35257 -32.583263 88.163025 -10.996598 23.727129
15060000000 -17.496412 72.069618 18.260162 76.010994 -32.535183 87.893356 -11.040984 23.651949
15070000000 -17.551895 72.300255 18.261425 75.659294 -32.5536 87.399681 -11.096231 23.60692
15080000000 -17.62273 72.446739 18.263744 75.311066 -32.536442 87.415604 -11.135201 23.692556
15090000000 -17.68121 72.643547 18.265909 74.967278 -32.484818 87.271011 -11.169895 23.541351
15100000000 -17.728855 72.870735 18.269878 74.612465 -32.536957 86.781364 -11.230674 23.581274
15110000000 -17.771852 73.106789 18.275175 74.266563 -32.486137 86.16629 -11.258681 23.544214
15120000000 -17.819489 73.480812 18.27589 73.91127 -32.479721 85.919052 -11.302003 23.559839
15130000000 -17.862583 74.039253 18.278677 73.544411 -32.527023 85.117828 -11.324576 23.469227
15140000000 -17.927435 74.493675 18.28212 73.209175 -32.404099 85.805389 -11.378028 23.354582
15150000000 -17.968603 75.068802 18.282001 72.842453 -32.406418 84.897659 -11.429136 23.517605
15160000000 -18.052696 75.504044 18.285112 72.483337 -32.376087 84.788681 -11.469907 23.51433
15170000000 -18.112396 76.002449 18.287851 72.130257 -32.375706 84.605568 -11.5234 23.606737
15180000000 -18.187943 76.50267 18.290804 71.796036 -32.364109 83.687096 -11.552178 23.646585
15190000000 -18.2624 76.78009 18.294804 71.443146 -32.382324 83.559692 -11.611046 23.426031
15200000000 -18.354584 77.179123 18.296885 71.095581 -32.385902 83.265656 -11.649791 23.511292
15210000000 -18.423256 77.457199 18.299343 70.740425 -32.397308 83.009956 -11.683226 23.480663
15220000000 -18.476692 77.773903 18.301069 70.38372 -32.327431 82.520859 -11.740106 23.503111
15230000000 -18.528118 78.049919 18.302864 70.027748 -32.342236 82.447639 -11.779125 23.460678
15240000000 -18.570898 78.405678 18.306242 69.667572 -32.333046 82.325401 -11.820548 23.397215
15250000000 -18.609806 78.9216 18.307878 69.309021 -32.33815 81.391899 -11.866512 23.441536
15260000000 -18.673857 79.346001 18.310503 68.953499 -32.244507 81.479515 -11.927994 23.578711
15270000000 -18.702244 79.81881 18.31118 68.592911 -32.275856 80.871834 -11.962336 23.523703
15280000000 -18.762522 80.384499 18.314207 68.23214 -32.309521 80.849152 -12.018214 23.386581
15290000000 -18.83412 80.995575 18.316391 67.890892 -32.234104 80.352364 -12.044274 23.268456
15300000000 -18.888334 81.490105 18.319355 67.52182 -32.196335 80.205276 -12.102325 23.318985
15310000000 -18.98839 82.03347 18.320688 67.171333 -32.176201 79.517281 -12.13134 23.294868
15320000000 -19.05933 82.462387 18.322971 66.807999 -32.168121 79.430504 -12.197766 23.211308
15330000000 -19.12785 82.792221 18.321827 66.449875 -32.223328 78.951775 -12.226714 23.322031
15340000000 -19.205322 83.071899 18.325121 66.088844 -32.253204 78.307365 -12.269622 23.152996
15350000000 -19.276945 83.396759 18.324545 65.734467 -32.235947 77.810394 -12.305616 23.137836
15360000000 -19.306911 83.810341 18.326784 65.36573 -32.202389 77.634041 -12.354521 23.246395
15370000000 -19.371908 84.056427 18.328819 65.012672 -32.180027 77.476364 -12.382167 23.25868
15380000000 -19.405342 84.457001 18.331722 64.653687 -32.163494 77.149399 -12.432212 23.095619
15390000000 -19.443506 84.898705 18.332249 64.288177 -32.11731 77.034103 -12.472855 23.143156
15400000000 -19.476698 85.395058 18.334515 63.93504 -32.135372 76.486771 -12.486801 23.097826
15410000000 -19.522661 85.846176 18.333057 63.565205 -32.096951 75.949661 -12.5491 23.029112
15420000000 -19.563957 86.531738 18.334192 63.202065 -32.057381 75.911766 -12.587575 23.180645
15430000000 -19.624714 86.98645 18.335236 62.840698 -32.093529 75.53157 -12.613166 23.115261
15440000000 -19.677908 87.56105 18.338982 62.484642 -32.067116 75.017769 -12.634386 23.174368
15450000000 -19.754349 87.988571 18.339487 62.120735 -32.022087 74.742783 -12.70321 23.10041
15460000000 -19.824617 88.42675 18.339046 61.77182 -32.087444 74.471581 -12.750726 23.302019
15470000000 -19.870415 88.739037 18.340767 61.408428 -31.986883 74.272896 -12.808333 23.270809
15480000000 -19.918711 89.056679 18.342205 61.055016 -32.00964 74.041351 -12.858393 23.37805
15490000000 -19.962673 89.319435 18.34383 60.691772 -32.002289 73.340546 -12.892203 23.35511
15500000000 -19.99123 89.671333 18.343899 60.340885 -32.003986 73.195908 -12.953508 23.337233
15510000000 -20.0133 90.14418 18.346081 59.971882 -31.985241 72.614487 -12.965256 23.165615
15520000000 -20.037195 90.524879 18.347641 59.599369 -31.96097 72.563072 -13.023082 23.357477
15530000000 -20.070166 91.02343 18.347916 59.248127 -31.955793 71.90062 -13.061721 23.335278
15540000000 -20.090067 91.618317 18.349905 58.859825 -31.942265 71.656364 -13.097537 23.091835
15550000000 -20.111626 92.242775 18.349825 58.502441 -31.978683 71.189636 -13.155384 23.205336
15560000000 -20.169012 92.829323 18.351212 58.132923 -31.904568 71.309097 -13.187312 23.154411
15570000000 -20.218204 93.453133 18.351578 57.781372 -31.83526 70.533951 -13.201749 23.110617
15580000000 -20.289986 93.871864 18.352728 57.408237 -31.848593 70.511238 -13.258363 22.987743
15590000000 -20.363701 94.225876 18.353447 57.064163 -31.876953 70.044449 -13.283108 23.073708
15600000000 -20.433754 94.504158 18.353844 56.696781 -31.894899 69.56279 -13.322379 22.992359
15610000000 -20.487497 94.734619 18.354803 56.327961 -31.860699 69.456566 -13.347107 22.963856
15620000000 -20.530115 94.996635 18.35504 55.962818 -31.831463 68.878883 -13.414173 22.989908
15630000000 -20.554926 95.080261 18.354975 55.597134 -31.844324 68.546883 -13.416342 22.864765
15640000000 -20.576262 95.432045 18.356281 55.226288 -31.843691 67.997307 -13.443061 22.990284
15650000000 -20.573605 95.625824 18.35708 54.853767 -31.832285 67.6521 -13.465948 22.890509
15660000000 -20.569313 95.967995 18.356491 54.487633 -31.840046 67.492119 -13.496886 23.010513
15670000000 -20.563368 96.404022 18.359013 54.126213 -31.777096 67.074699 -13.533554 22.91432
15680000000 -20.575626 96.862579 18.358646 53.759621 -31.736004 66.6782 -13.591231 23.060204
15690000000 -20.597475 97.51696 18.36006 53.409409 -31.788456 66.561264 -13.608117 23.374207
15700000000 -20.62097 98.119957 18.360657 53.035439 -31.749329 66.152466 -13.650587 23.266275
15710000000 -20.681881 98.63179 18.360485 52.681408 -31.78611 65.855637 -13.688688 23.341064
15720000000 -20.731825 99.144791 18.361511 52.3046 -31.700296 65.508041 -13.71885 23.311161
15730000000 -20.776857 99.48381 18.361462 51.940834 -31.704617 64.913925 -13.764105 23.26284
15740000000 -20.830339 99.793892 18.3594 51.573162 -31.702433 64.960556 -13.834669 23.334877
15750000000 -20.888165 100.11966 18.358461 51.206345 -31.655413 64.361885 -13.847479 23.050655
15760000000 -20.924145 100.28737 18.359755 50.843887 -31.668568 64.048302 -13.870569 23.085835
15770000000 -20.954109 100.53506 18.359116 50.462971 -31.694727 63.731766 -13.916932 22.956514
15780000000 -20.980209 100.77407 18.35866 50.0993 -31.685972 63.536469 -13.952291 23.006495
15790000000 -20.985666 100.86691 18.358902 49.739902 -31.636433 62.897343 -13.988489 22.972359
15800000000 -20.977798 101.20602 18.359159 49.372627 -31.672951 62.737522 -14.001498 23.003151
15810000000 -20.985113 101.69683 18.360235 49.011459 -31.664858 62.571083 -14.031629 22.814468
15820000000 -20.999109 102.15036 18.361443 48.637619 -31.60957 61.968956 -14.03164 22.87661
15830000000 -21.016079 102.49958 18.360991 48.274815 -31.587248 61.511612 -14.048473 22.959953
15840000000 -21.048426 102.98534 18.361097 47.918106 -31.651764 61.359238 -14.090896 22.960291
15850000000 -21.090855 103.43778 18.360367 47.543346 -31.575672 60.867744 -14.114987 23.00473
15860000000 -21.138538 103.76195 18.359447 47.17268 -31.58626 60.999069 -14.129343 23.074858
15870000000 -21.192959 104.07084 18.358553 46.807766 -31.570259 60.297859 -14.170337 23.128181
15880000000 -21.232046 104.17126 18.358576 46.437355 -31.544569 59.694237 -14.18339 23.284754
15890000000 -21.287937 104.11629 18.358751 46.072742 -31.575903 59.317535 -14.210674 23.214083
15900000000 -21.297678 104.02956 18.359175 45.706005 -31.518148 59.108566 -14.244154 23.415453
15910000000 -21.290968 104.10812 18.359606 45.356422 -31.503145 58.727142 -14.294139 23.287109
15920000000 -21.299637 104.13413 18.362272 44.973511 -31.508493 58.44574 -14.302499 23.394234
15930000000 -21.307096 104.36587 18.359255 44.603359 -31.544081 58.085773 -14.32652 23.412182
15940000000 -21.297777 104.38508 18.359818 44.237587 -31.500736 57.563583 -14.372192 23.45944
15950000000 -21.294437 104.67581 18.359673 43.872547 -31.477119 57.117153 -14.398067 23.403902
15960000000 -21.308405 104.96709 18.359997 43.493717 -31.486105 57.371334 -14.420036 23.404329
15970000000 -21.321699 105.30733 18.358992 43.119774 -31.499773 56.771355 -14.443472 23.144381
15980000000 -21.341349 105.55229 18.357929 42.748558 -31.499716 56.28923 -14.462097 23.203728
15990000000 -21.393217 105.7775 18.357925 42.385662 -31.440657 55.93169 -14.517838 23.177261
16000000000 -21.442955 105.87595 18.357132 42.015636 -31.406534 56.039776 -14.536566 23.218542
16010000000 -21.485807 105.81731 18.356646 41.638767 -31.405209 55.140404 -14.513638 23.058504
16020000000 -21.520634 105.64076 18.354828 41.263237 -31.412315 55.312881 -14.543155 23.05068
16030000000 -21.552797 105.58588 18.354044 40.896187 -31.437828 54.622478 -14.535806 22.949558
16040000000 -21.561884 105.3994 18.35343 40.529369 -31.407091 54.38662 -14.55761 23.069563
16050000000 -21.569094 105.30009 18.353378 40.146484 -31.394297 53.935417 -14.557942 22.990089
16060000000 -21.554298 105.06789 18.35149 39.765938 -31.358524 53.673798 -14.592791 23.04812
16070000000 -21.531635 105.34581 18.351919 39.385567 -31.386215 53.322628 -14.602885 23.091089
16080000000 -21.523537 105.44192 18.348688 39.009438 -31.369429 52.887764 -14.623887 23.043133
16090000000 -21.527025 105.56549 18.347767 38.637096 -31.344109 52.265232 -14.635421 23.179262
16100000000 -21.526772 105.72207 18.345858 38.260368 -31.394751 52.228096 -14.669697 23.150824
16110000000 -21.570404 105.92355 18.34576 37.884884 -31.368425 51.612064 -14.652285 23.17754
16120000000 -21.609203 106.11552 18.343571 37.514908 -31.374912 51.434799 -14.684379 23.112921
16130000000 -21.654499 106.03398 18.343477 37.153713 -31.360577 50.722591 -14.718008 23.150906
16140000000 -21.699087 106.07389 18.342739 36.791588 -31.288927 50.931065 -14.726455 23.103979
16150000000 -21.736464 105.90564 18.340387 36.42049 -31.275436 50.81179 -14.743122 23.022158
16160000000 -21.771875 105.55728 18.339176 36.043129 -31.299299 50.094749 -14.736725 23.191702
16170000000 -21.774225 105.11555 18.338705 35.66613 -31.297041 49.835175 -14.761211 23.226339
16180000000 -21.781471 104.9179 18.335859 35.285408 -31.286797 49.43449 -14.774916 23.147984
16190000000 -21.732336 104.66042 18.33424 34.917538 -31.249254 49.184483 -14.798954 23.37178
16200000000 -21.700977 104.5356 18.332911 34.549839 -31.241066 48.591969 -14.803611 23.489376
16210000000 -21.669395 104.34803 18.33168 34.172752 -31.214308 48.249725 -14.827579 23.319815
16220000000 -21.651115 104.50361 18.330807 33.809715 -31.24066 48.154613 -14.808907 23.328878
16230000000 -21.653713 104.56137 18.331663 33.441357 -31.195326 47.54174 -14.835836 23.386713
16240000000 -21.668341 104.62785 18.330608 33.072495 -31.224789 47.207375 -14.796785 23.338619
16250000000 -21.688881 104.6675 18.329062 32.702511 -31.215775 46.853676 -14.812752 23.383904
16260000000 -21.735155 104.58042 18.327888 32.326855 -31.191942 46.472984 -14.856863 23.43014
16270000000 -21.780005 104.3595 18.326851 31.956448 -31.210169 46.35857 -14.838181 23.382339
16280000000 -21.815483 104.01602 18.326427 31.586651 -31.155109 45.876503 -14.848162 23.449846
16290000000 -21.843786 103.55264 18.32489 31.211073 -31.139095 45.494598 -14.830407 23.459974
16300000000 -21.8384 102.95007 18.32391 30.825512 -31.154854 45.213367 -14.83849 23.66238
16310000000 -21.824823 102.56401 18.322462 30.454939 -31.195499 44.705704 -14.839093 23.656567
16320000000 -21.810743 102.03746 18.319881 30.08305 -31.157372 44.212173 -14.822436 23.631041
16330000000 -21.780361 101.71883 18.320303 29.704453 -31.151512 43.89238 -14.832289 23.678867
16340000000 -21.752819 101.42437 18.320158 29.327654 -31.065151 43.616188 -14.835149 23.737173
16350000000 -21.735909 101.35059 18.318361 28.958725 -31.125994 43.106133 -14.848719 23.817604
16360000000 -21.734818 101.09351 18.317516 28.579197 -31.128244 43.0527 -14.860311 23.865173
16370000000 -21.72991 101.05697 18.314955 28.200916 -31.129759 42.616489 -14.860153 23.693188
16380000000 -21.760592 100.83126 18.313072 27.82913 -31.072023 42.517887 -14.878685 23.65662
16390000000 -21.782787 100.50694 18.311722 27.447834 -31.078072 41.996349 -14.877872 23.57951
16400000000 -21.826548 100.06299 18.309584 27.067911 -31.080816 41.574245 -14.853446 23.596277
16410000000 -21.82766 99.590446 18.308243 26.682798 -31.082064 41.041676 -14.862908 23.718138
16420000000 -21.83507 98.92453 18.306007 26.312857 -31.046349 40.664574 -14.881125 23.726362
16430000000 -21.845701 98.298248 18.305618 25.936989 -31.070763 40.293774 -14.838949 23.676178
16440000000 -21.802021 97.776093 18.302322 25.564901 -31.085276 40.305775 -14.846782 23.744291
16450000000 -21.770634 97.296768 18.299809 25.173815 -31.044474 39.847656 -14.829902 23.68515
16460000000 -21.723402 96.884407 18.296656 24.794588 -31.013233 39.617424 -14.818603 23.813269
16470000000 -21.687357 96.63781 18.295357 24.419725 -31.017706 38.756401 -14.824744 23.930941
16480000000 -21.641645 96.387268 18.29244 24.027483 -31.005003 38.783131 -14.803672 24.005159
16490000000 -21.625792 96.165688 18.290257 23.656975 -31.030012 38.04211 -14.83138 23.993744
16500000000 -21.638771 96.047844 18.287178 23.281437 -31.019577 37.798805 -14.83091 24.081289
16510000000 -21.681044 95.680511 18.285641 22.901606 -30.939426 37.640434 -14.820853 24.235327
16520000000 -21.699337 95.147957 18.283587 22.531199 -30.949947 37.355247 -14.813067 24.460672
16530000000 -21.732574 94.43853 18.282705 22.153433 -30.937962 36.663872 -14.7813 24.382971
16540000000 -21.748352 93.842682 18.27976 21.774992 -30.985056 36.686543 -14.808572 24.445608
16550000000 -21.75425 92.869209 18.276978 21.391687 -30.94993 36.087471 -14.825222 24.658951
16560000000 -21.730835 92.218651 18.273672 21.002949 -30.930662 35.84053 -14.780495 24.480509
16570000000 -21.672421 91.381531 18.271852 20.623863 -30.927958 35.545895 -14.788778 24.558945
16580000000 -21.605761 90.605667 18.269371 20.240868 -30.903975 35.063129 -14.789271 24.553034
16590000000 -21.531305 90.079506 18.266403 19.866318 -30.939226 34.566475 -14.779806 24.587826
16600000000 -21.448185 89.713852 18.265175 19.482235 -30.90897 34.236565 -14.777263 24.716816
16610000000 -21.388494 89.27935 18.261429 19.087767 -30.869692 34.052437 -14.764909 24.735092
16620000000 -21.373457 89.034676 18.258728 18.710823 -30.907949 33.677631 -14.759934 24.732098
16630000000 -21.354515 88.696312 18.257801 18.33666 -30.911116 33.138779 -14.762249 24.755888
16640000000 -21.342102 88.356148 18.253407 17.951021 -30.876869 33.126717 -14.744819 24.886517
16650000000 -21.374846 87.749695 18.251465 17.574005 -30.846357 32.672203 -14.732037 24.730854
16660000000 -21.399014 87.146675 18.249798 17.199377 -30.845802 32.114483 -14.693271 24.755295
16670000000 -21.423883 86.448555 18.245998 16.808062 -30.832823 31.770584 -14.693521 24.857021
16680000000 -21.406904 85.71788 18.244354 16.43359 -30.863642 31.31761 -14.648934 24.896765
16690000000 -21.379097 84.81929 18.240278 16.040163 -30.845854 31.059759 -14.624084 24.81793
16700000000 -21.297482 83.917366 18.237722 15.650439 -30.848537 30.32934 -14.604907 24.798031
16710000000 -21.224421 83.016342 18.236599 15.252213 -30.828068 30.436737 -14.591346 25.110718
16720000000 -21.154051 82.308105 18.231876 14.876852 -30.805361 30.07365 -14.573333 25.168955
16730000000 -21.10153 81.592789 18.22797 14.488132 -30.856386 29.803148 -14.579904 25.139441
16740000000 -21.024895 81.249504 18.225725 14.121685 -30.817968 29.138315 -14.523329 25.294434
16750000000 -20.978233 80.871765 18.222231 13.754794 -30.817417 29.137815 -14.517267 25.625441
16760000000 -20.924288 80.460266 18.219521 13.382994 -30.760799 28.721434 -14.505599 25.625326
16770000000 -20.903162 80.117996 18.215834 13.005888 -30.807062 28.201565 -14.474271 25.669748
16780000000 -20.868595 79.442169 18.213318 12.629209 -30.753544 27.917904 -14.470248 25.93124
16790000000 -20.838266 78.831284 18.210325 12.230597 -30.783304 27.65913 -14.414142 26.096991
16800000000 -20.818851 78.116325 18.205948 11.849493 -30.785271 27.055269 -14.423713 26.114374
16810000000 -20.777868 77.263222 18.201742 11.462161 -30.760891 26.49865 -14.404858 26.057652
16820000000 -20.722473 76.422768 18.197174 11.078416 -30.803539 26.445036 -14.395978 26.20162
16830000000 -20.649437 75.66777 18.193443 10.703594 -30.738985 26.058949 -14.367075 26.53264
16840000000 -20.578579 74.922401 18.191462 10.321477 -30.726921 25.578291 -14.380292 26.579494
16850000000 -20.485405 74.195457 18.188511 9.9454327 -30.704174 25.201509 -14.338755 26.523485
16860000000 -20.412254 73.653404 18.183762 9.5637779 -30.745142 24.843271 -14.343497 26.697771
16870000000 -20.358011 73.193771 18.181263 9.1817169 -30.704056 24.644434 -14.308256 26.631933
16880000000 -20.303116 72.578156 18.178104 8.798295 -30.71793 23.951231 -14.300518 26.651102
16890000000 -20.244625 72.087059 18.173592 8.411644 -30.717228 23.968658 -14.279305 26.599743
16900000000 -20.181137 71.550789 18.169283 8.0377474 -30.694679 23.693762 -14.238607 26.821703
16910000000 -20.1378 70.987549 18.164555 7.6394892 -30.716158 22.86417 -14.225569 26.887362
16920000000 -20.075397 70.267212 18.160316 7.2580247 -30.69405 23.044889 -14.171744 26.966791
16930000000 -20.036533 69.332443 18.155848 6.8622789 -30.678753 22.190266 -14.151513 27.137924
16940000000 -19.961653 68.625465 18.15197 6.4842539 -30.683622 21.930323 -14.126181 27.116585
16950000000 -19.885323 67.890213 18.148514 6.1033344 -30.648613 21.700203 -14.080895 27.243345
16960000000 -19.805687 66.960701 18.144978 5.727416 -30.653793 21.35004 -14.041823 27.560257
16970000000 -19.72208 66.321182 18.142176 5.3510952 -30.683645 21.041323 -14.034118 27.595388
16980000000 -19.631256 65.649223 18.137684 4.9604449 -30.668737 20.547041 -14.004898 27.581707
16990000000 -19.527372 65.156326 18.135611 4.5952797 -30.663153 20.315533 -14.001498 27.913548
17000000000 -19.444172 64.698227 18.131308 4.2096591 -30.671841 20.031015 -13.955619 27.929081
17010000000 -19.36377 64.223198 18.125967 3.8147926 -30.636934 19.383415 -13.935533 28.03335
17020000000 -19.286024 63.612804 18.121817 3.4211576 -30.609848 19.299225 -13.906212 28.089018
17030000000 -19.217567 63.049107 18.116104 3.03578 -30.607634 18.861486 -13.867828 28.154541
17040000000 -19.149572 62.482269 18.111574 2.6521821 -30.603455 18.474819 -13.84816 28.318144
17050000000 -19.072899 61.833702 18.107077 2.2695079 -30.637749 18.016655 -13.804461 28.337357
17060000000 -19.007919 61.142803 18.104046 1.8826523 -30.601963 17.579264 -13.77827 28.51807
17070000000 -18.941196 60.43161 18.099915 1.4985775 -30.611383 17.312389 -13.735529 28.615849
17080000000 -18.842068 59.751064 18.095442 1.1169138 -30.556984 17.189159 -13.691836 28.670286
17090000000 -18.751396 59.033966 18.09082 0.72415727 -30.611645 16.704178 -13.690797 28.763515
17100000000 -18.6579 58.369125 18.086222 0.33230776 -30.578407 16.199455 -13.663298 28.885427
17110000000 -18.550287 57.817902 18.081833 -0.045779504 -30.549356 16.008465 -13.614852 28.910273
17120000000 -18.45055 57.209946 18.076399 -0.43730575 -30.56572 15.500024 -13.60905 29.188332
17130000000 -18.344065 56.730259 18.0721 -0.82721794 -30.585258 15.215172 -13.555476 29.120745
17140000000 -18.240847 56.31031 18.066833 -1.2032399 -30.596201 14.702669 -13.536841 29.301327
17150000000 -18.152815 55.859997 18.061966 -1.5947634 -30.579781 14.265441 -13.476719 29.361101
17160000000 -18.061157 55.35387 18.055773 -1.9767876 -30.550821 14.249161 -13.462049 29.500206
17170000000 -17.995184 54.808361 18.052183 -2.3548911 -30.573553 13.644774 -13.416401 29.530497
17180000000 -17.917631 54.389446 18.044722 -2.7487159 -30.57056 13.379156 -13.402326 29.725489
17190000000 -17.843805 53.865879 18.040949 -3.122483 -30.573092 13.035725 -13.355309 29.8256
17200000000 -17.768015 53.282181 18.035353 -3.5169895 -30.570669 12.601167 -13.304491 29.955215
17210000000 -17.68189 52.750298 18.030966 -3.8999958 -30.548719 12.401791 -13.28629 30.070742
17220000000 -17.584002 52.118389 18.025034 -4.2779942 -30.541393 11.826431 -13.260728 30.25728
17230000000 -17.488153 51.469276 18.019398 -4.6733942 -30.495058 11.524053 -13.230668 30.260572
17240000000 -17.375618 51.037037 18.012531 -5.0679922 -30.519182 11.194245 -13.182416 30.505257
17250000000 -17.263109 50.329231 18.009413 -5.4684873 -30.476183 10.648075 -13.151928 30.489128
17260000000 -17.170141 49.911255 18.003428 -5.8523493 -30.523323 10.586308 -13.102423 30.675381
17270000000 -17.074211 49.46283 17.997515 -6.2308488 -30.481861 10.11997 -13.081735 30.798874
17280000000 -16.97551 49.087849 17.991152 -6.6047053 -30.536379 9.5335579 -13.060753 30.842211
17290000000 -16.883886 48.752457 17.98535 -6.9856 -30.536741 9.3984184 -13.009957 30.852091
17300000000 -16.798637 48.30241 17.979445 -7.3714757 -30.472042 9.0007763 -12.957521 30.906015
17310000000 -16.719784 47.849857 17.972319 -7.7585006 -30.499168 8.5673103 -12.921056 31.1437
17320000000 -16.647507 47.446301 17.965897 -8.1374712 -30.505636 8.2671719 -12.869514 31.185865
17330000000 -16.561504 46.937046 17.960375 -8.5198774 -30.454062 8.0704803 -12.846371 31.444206
17340000000 -16.478071 46.449371 17.955046 -8.8981791 -30.503345 7.3072848 -12.808343 31.4126
17350000000 -16.385967 45.895901 17.948671 -9.2936468 -30.506615 7.3448176 -12.781631 31.481903
17360000000 -16.291059 45.361797 17.943111 -9.6725388 -30.501928 7.1022038 -12.725061 31.625044
17370000000 -16.200308 44.87011 17.937328 -10.061535 -30.500666 6.3461137 -12.684306 31.731684
17380000000 -16.094 44.332558 17.929869 -10.449641 -30.432934 6.3802152 -12.643785 31.822201
17390000000 -16.006994 43.92868 17.925247 -10.840501 -30.511103 5.5715246 -12.573917 31.953424
17400000000 -15.889448 43.458004 17.919489 -11.219936 -30.45896 5.334271 -12.562601 32.191998
17410000000 -15.804244 43.113731 17.913282 -11.600966 -30.461472 5.0318704 -12.519509 32.240059
17420000000 -15.723181 42.692612 17.906317 -11.986979 -30.43161 4.4618254 -12.495175 32.074745
17430000000 -15.624152 42.446793 17.90081 -12.36823 -30.467928 4.1074238 -12.435313 32.338058
17440000000 -15.525436 41.956966 17.894184 -12.757236 -30.439945 4.1701889 -12.411516 32.420181
17450000000 -15.456591 41.685894 17.886961 -13.148328 -30.439983 3.3476613 -12.338606 32.512016
17460000000 -15.380622 41.156193 17.880217 -13.534189 -30.403265 3.2846787 -12.317587 32.661377
17470000000 -15.286808 40.776562 17.871906 -13.916914 -30.449341 2.8252716 -12.277621 32.872696
17480000000 -15.195967 40.261833 17.86471 -14.299657 -30.421717 2.3475125 -12.25533 32.92659
17490000000 -15.112554 39.829086 17.860165 -14.671571 -30.488783 1.9147193 -12.197095 33.037781
17500000000 -15.028809 39.352928 17.851046 -15.058337 -30.436316 1.778174 -12.17952 33.016068
17510000000 -14.924807 38.819077 17.845789 -15.43945 -30.388599 1.6229075 -12.134971 33.094116
17520000000 -14.828912 38.535286 17.840967 -15.841439 -30.421717 1.1910572 -12.087907 33.201797
17530000000 -14.757814 38.22607 17.832371 -16.222313 -30.389277 0.44803923 -12.075414 33.277073
17540000000 -14.648442 37.847809 17.826151 -16.615833 -30.413191 0.30445376 -12.046502 33.231915
17550000000 -14.569257 37.500217 17.819302 -17.010824 -30.36655 0.35690024 -11.968604 33.262146
17560000000 -14.476866 37.228901 17.811502 -17.402065 -30.436329 -0.33184248 -11.930946 33.431602
17570000000 -14.41324 36.945221 17.803139 -17.782923 -30.36717 -0.88784766 -11.901995 33.481594
17580000000 -14.326451 36.578094 17.795095 -18.166361 -30.432377 -1.2845763 -11.847493 33.574589
17590000000 -14.261334 36.21957 17.787279 -18.548628 -30.443224 -1.4894948 -11.807214 33.6227
17600000000 -14.189954 35.811893 17.77853 -18.941729 -30.411304 -1.8144997 -11.771117 33.53334
17610000000 -14.106307 35.327961 17.7722 -19.312857 -30.404987 -1.8690337 -11.723646 33.77533
17620000000 -14.027068 34.874416 17.763597 -19.712446 -30.392035 -2.4734311 -11.684237 33.736855
17630000000 -13.948548 34.484306 17.757036 -20.0972 -30.375771 -3.1094418 -11.631527 33.771343
17640000000 -13.850377 34.106701 17.748734 -20.488544 -30.430222 -3.1721275 -11.587646 33.75272
17650000000 -13.763899 33.711193 17.740484 -20.866598 -30.37475 -3.6147966 -11.553401 33.780724
17660000000 -13.664833 33.35186 17.732672 -21.258839 -30.37273 -3.8125489 -11.497435 34.040138
17670000000 -13.56933 33.063797 17.724819 -21.655771 -30.420519 -4.6034069 -11.430443 34.037109
17680000000 -13.486152 32.827278 17.716722 -22.024755 -30.35578 -4.8376036 -11.414326 34.053757
17690000000 -13.403465 32.59671 17.709379 -22.403605 -30.388613 -5.2345867 -11.374993 34.124805
17700000000 -13.341555 32.312832 17.702013 -22.77096 -30.39395 -5.3703694 -11.32969 34.240772
17710000000 -13.274102 31.970575 17.693705 -23.163542 -30.376919 -5.66431 -11.264144 34.334389
17720000000 -13.203803 31.665918 17.685835 -23.535275 -30.394899 -5.7253213 -11.235273 34.33466
17730000000 -13.142919 31.304575 17.678862 -23.915401 -30.401957 -6.3660855 -11.191102 34.44223
17740000000 -13.083515 30.986513 17.669605 -24.290432 -30.399033 -7.1682734 -11.151454 34.570877
17750000000 -13.003881 30.562935 17.660505 -24.684132 -30.407475 -7.1528678 -11.124575 34.414242
17760000000 -12.923532 30.144411 17.650169 -25.06786 -30.384663 -7.712163 -11.087277 34.480625
17770000000 -12.844957 29.795887 17.643482 -25.45182 -30.352644 -8.0793591 -11.052274 34.595268
17780000000 -12.758732 29.395523 17.634663 -25.828436 -30.353292 -8.2076683 -11.006203 34.682049
17790000000 -12.677736 29.147449 17.626415 -26.210966 -30.364395 -8.4375782 -10.954496 34.494949
17800000000 -12.590797 28.834368 17.619965 -26.584335 -30.400808 -9.1121101 -10.919475 34.661243
17810000000 -12.527461 28.594158 17.610699 -26.975546 -30.387938 -9.5139036 -10.85479 34.603882
17820000000 -12.456809 28.355402 17.604364 -27.34417 -30.337626 -9.5853872 -10.817648 34.713005
17830000000 -12.399133 28.089323 17.595758 -27.727949 -30.41828 -9.9250412 -10.759007 34.763382
17840000000 -12.34516 27.738079 17.586378 -28.102936 -30.355183 -10.201489 -10.728274 34.752266
17850000000 -12.282462 27.481308 17.576782 -28.495132 -30.37491 -10.905165 -10.686343 34.778713
17860000000 -12.214592 27.108776 17.565845 -28.86022 -30.383656 -11.058677 -10.646777 34.777073
17870000000 -12.151525 26.72444 17.558012 -29.24394 -30.373453 -11.764886 -10.607303 34.842842
17880000000 -12.079204 26.324308 17.549444 -29.601196 -30.3811 -12.222406 -10.580051 34.906467
17890000000 -12.008946 25.888132 17.541092 -29.986631 -30.362337 -11.978111 -10.530254 34.748692
17900000000 -11.935772 25.534895 17.531212 -30.3671 -30.38031 -12.615737 -10.480202 34.829849
17910000000 -11.85786 25.19673 17.521723 -30.746738 -30.386608 -12.689379 -10.424356 34.730564
17920000000 -11.782952 24.93273 17.513861 -31.141436 -30.339464 -13.611933 -10.38198 34.791821
17930000000 -11.71268 24.683634 17.505346 -31.515631 -30.347349 -13.628921 -10.369146 34.958916
17940000000 -11.637745 24.436043 17.493553 -31.903055 -30.386955 -14.079161 -10.318895 34.661045
17950000000 -11.569241 24.168888 17.484587 -32.283546 -30.399452 -14.361816 -10.254734 34.814831
17960000000 -11.510056 23.891636 17.473759 -32.663914 -30.373171 -14.518201 -10.203877 34.825787
17970000000 -11.449002 23.685692 17.464449 -33.025135 -30.315767 -15.251251 -10.191712 34.933514
17980000000 -11.397451 23.292776 17.455288 -33.410576 -30.362974 -15.213232 -10.146604 34.982914
17990000000 -11.341127 23.013584 17.445065 -33.776226 -30.346014 -15.737492 -10.112684 34.848129
18000000000 -11.279894 22.671059 17.43684 -34.160976 -30.357786 -16.377354 -10.050072 34.922409
18010000000 -11.22762 22.340012 17.426458 -34.523617 -30.365244 -16.704962 -10.027051 34.894192
18020000000 -11.159658 21.929152 17.416922 -34.914341 -30.338036 -16.624918 -9.9771976 34.954433
18030000000 -11.095227 21.654846 17.407825 -35.287769 -30.369904 -17.464703 -9.9328909 34.884457
18040000000 -11.028183 21.320545 17.396097 -35.672405 -30.359991 -17.571606 -9.904377 34.651871
18050000000 -10.954692 21.068071 17.388941 -36.034954 -30.351618 -17.865604 -9.8746824 34.841743
18060000000 -10.894268 20.759853 17.378305 -36.4175 -30.337843 -18.185881 -9.8438787 34.888107
18070000000 -10.823256 20.549625 17.368557 -36.81192 -30.361713 -18.753036 -9.7983799 34.763512
18080000000 -10.769648 20.228298 17.357941 -37.177425 -30.396074 -18.941442 -9.7567005 34.74543
18090000000 -10.720184 19.954885 17.348051 -37.551525 -30.372337 -19.088175 -9.7197638 34.573296
18100000000 -10.667039 19.693825 17.338659 -37.928196 -30.365763 -19.765398 -9.6700954 34.594368
18110000000 -10.627323 19.418818 17.328327 -38.284332 -30.359629 -19.756182 -9.6418657 34.556545
18120000000 -10.571836 19.114969 17.317251 -38.666271 -30.399906 -20.193232 -9.592556 34.417301
18130000000 -10.516814 18.778337 17.306292 -39.043858 -30.400644 -20.577366 -9.5555096 34.418934
18140000000 -10.46876 18.395084 17.295406 -39.401752 -30.354992 -20.891176 -9.531414 34.353699
18150000000 -10.409875 18.064644 17.287313 -39.773724 -30.356569 -21.252657 -9.4791498 34.369896
18160000000 -10.348202 17.809965 17.277182 -40.151722 -30.34771 -21.948257 -9.4292917 34.288864
18170000000 -10.287091 17.459652 17.268419 -40.520893 -30.378016 -21.893574 -9.4022026 34.282459
18180000000 -10.225744 17.164621 17.258888 -40.894432 -30.39817 -22.30636 -9.3760118 34.167084
18190000000 -10.168804 16.918262 17.249025 -41.274231 -30.339006 -23.052113 -9.3328667 34.237846
18200000000 -10.106811 16.629953 17.238218 -41.647839 -30.420094 -23.040569 -9.2911892 34.119194
18210000000 -10.059022 16.354092 17.228949 -42.020615 -30.380619 -23.311401 -9.2492609 34.128967
18220000000 -10.012783 16.05784 17.216908 -42.391323 -30.360674 -23.820637 -9.2104111 34.037445
18230000000 -9.9683599 15.785959 17.205244 -42.757141 -30.36171 -23.825926 -9.1699591 33.931831
18240000000 -9.9172239 15.511724 17.194469 -43.120983 -30.341797 -24.729883 -9.125515 33.966084
18250000000 -9.8658829 15.183637 17.183933 -43.491428 -30.393335 -25.156824 -9.0822306 33.791302
18260000000 -9.8177776 14.805408 17.174761 -43.841084 -30.398352 -25.049288 -9.0533695 33.739964
18270000000 -9.7642231 14.495622 17.164122 -44.220455 -30.376545 -25.328838 -9.025178 33.643253
18280000000 -9.7100697 14.179301 17.151814 -44.591984 -30.384983 -25.82608 -8.9726782 33.465096
18290000000 -9.6432981 13.907298 17.140779 -44.965115 -30.351845 -26.19397 -8.9151382 33.520519
18300000000 -9.5786095 13.596341 17.130291 -45.32777 -30.393589 -26.520491 -8.8935337 33.543808
18310000000 -9.5289831 13.3602 17.117819 -45.686409 -30.390205 -26.917652 -8.8551102 33.343842
18320000000 -9.4668474 13.087333 17.106346 -46.045624 -30.434072 -27.05187 -8.8343563 33.285839
18330000000 -9.4174223 12.868043 17.095238 -46.412983 -30.366404 -27.518925 -8.7869101 33.289104
18340000000 -9.3765173 12.689874 17.088091 -46.774815 -30.357189 -28.153097 -8.732955 33.412067
18350000000 -9.333744 12.397706 17.076941 -47.137318 -30.390352 -28.366114 -8.7096395 33.293106
18360000000 -9.2945995 12.136269 17.068209 -47.501717 -30.393913 -28.561693 -8.6777964 33.275547
18370000000 -9.2514915 11.868448 17.05619 -47.871616 -30.427908 -28.668917 -8.6519318 33.170757
18380000000 -9.2164783 11.597043 17.046387 -48.229065 -30.372908 -29.179932 -8.6260157 33.173363
18390000000 -9.1580811 11.268843 17.034227 -48.589836 -30.431946 -29.82369 -8.595027 32.98735
18400000000 -9.1233807 10.946877 17.023304 -48.944527 -30.381824 -29.813786 -8.5706892 32.952824
18410000000 -9.0769796 10.602125 17.013145 -49.312225 -30.430704 -30.14669 -8.5334854 32.865265
18420000000 -9.0226545 10.284949 17.000998 -49.670361 -30.414892 -30.616562 -8.4968128 32.761116
18430000000 -8.9683189 9.9957724 16.989862 -50.033997 -30.390621 -30.902386 -8.4592562 32.587486
18440000000 -8.9208288 9.7054605 16.977345 -50.387112 -30.436413 -31.315273 -8.4248247 32.366489
18450000000 -8.8825703 9.4760418 16.970518 -50.748257 -30.360918 -31.426783 -8.4004469 32.384602
18460000000 -8.827363 9.2358494 16.957556 -51.113075 -30.408382 -32.05204 -8.3527079 32.254265
18470000000 -8.7856874 8.9736414 16.946041 -51.471066 -30.411476 -32.249931 -8.3239698 32.096004
18480000000 -8.7500296 8.7399864 16.934299 -51.838966 -30.349623 -32.408432 -8.2792835 32.042328
18490000000 -8.6988544 8.4970188 16.922846 -52.206211 -30.394493 -33.137444 -8.2561979 31.983973
18500000000 -8.6635714 8.2123308 16.909525 -52.560471 -30.385286 -33.073406 -8.2196589 31.861874
18510000000 -8.6220064 7.9132404 16.899826 -52.932724 -30.406425 -33.736607 -8.1741905 31.899694
18520000000 -8.5849638 7.5781522 16.889124 -53.268169 -30.437422 -34.072975 -8.1558914 31.658293
18530000000 -8.5495625 7.3207626 16.880405 -53.628189 -30.420162 -34.118885 -8.1344109 31.606865
18540000000 -8.5153446 7.0081077 16.867878 -53.992538 -30.439047 -34.345467 -8.0872593 31.457182
18550000000 -8.4745464 6.7033782 16.858732 -54.342831 -30.394878 -34.659851 -8.0732241 31.439528
18560000000 -8.4335508 6.4256034 16.848515 -54.697018 -30.425362 -35.076469 -8.0345726 31.362976
18570000000 -8.384306 6.146338 16.835421 -55.054741 -30.447124 -35.491035 -8.003315 31.177704
18580000000 -8.3429012 5.8663244 16.822693 -55.414589 -30.443176 -35.919147 -7.9606752 31.028351
18590000000 -8.304121 5.5851912 16.813599 -55.778923 -30.394241 -36.020924 -7.9387012 31.023075
18600000000 -8.2627878 5.3527722 16.801924 -56.130157 -30.357462 -36.351669 -7.9139438 30.950285
18610000000 -8.2192698 4.9832797 16.790722 -56.47393 -30.448753 -36.565659 -7.8888044 30.798601
18620000000 -8.1777077 4.7388992 16.781298 -56.842587 -30.419514 -37.376785 -7.8578658 30.751339
18630000000 -8.13943 4.4861546 16.770149 -57.190083 -30.410206 -37.719254 -7.8292708 30.634472
18640000000 -8.1023312 4.1846781 16.75935 -57.549904 -30.417028 -38.158508 -7.7973599 30.435972
18650000000 -8.0660467 3.9467514 16.749268 -57.900875 -30.451166 -38.358791 -7.7803302 30.369522
18660000000 -8.0278502 3.7267873 16.737968 -58.258774 -30.380938 -38.603329 -7.7354722 30.260494
18670000000 -7.9924273 3.4269605 16.726402 -58.612942 -30.412537 -38.887272 -7.7170396 30.060728
18680000000 -7.9534631 3.1767511 16.717222 -58.960678 -30.40662 -39.090214 -7.694694 30.043131
18690000000 -7.9152217 2.9477761 16.705334 -59.305542 -30.420294 -39.30962 -7.675302 29.855915
18700000000 -7.8842611 2.6595039 16.694834 -59.669701 -30.423933 -39.799774 -7.6418471 29.713829
18710000000 -7.847199 2.3684573 16.683706 -60.013889 -30.445007 -40.11795 -7.6143279 29.540087
18720000000 -7.8149347 2.1189325 16.672218 -60.381454 -30.419296 -40.303749 -7.5765076 29.420374
18730000000 -7.778038 1.8680122 16.660789 -60.73653 -30.364267 -40.959366 -7.5443745 29.310217
18740000000 -7.7517166 1.5327623 16.648989 -61.066952 -30.461599 -41.202652 -7.5113807 29.149195
18750000000 -7.7181606 1.2795851 16.637157 -61.416939 -30.421822 -41.338711 -7.4968767 28.932259
18760000000 -7.6790271 0.99040657 16.626709 -61.764198 -30.439224 -41.82452 -7.4627581 28.765295
18770000000 -7.6401443 0.74589145 16.615917 -62.108734 -30.391787 -42.351006 -7.4424014 28.693481
18780000000 -7.6057463 0.47024369 16.604015 -62.458298 -30.43837 -42.282398 -7.4131784 28.606815
18790000000 -7.5689812 0.20854363 16.594063 -62.799118 -30.426167 -42.672394 -7.3872685 28.465368
18800000000 -7.5320296 -0.064724304 16.583349 -63.150917 -30.439226 -43.305618 -7.341382 28.34149
18810000000 -7.497622 -0.35721084 16.570963 -63.493916 -30.455339 -43.270622 -7.3200264 28.155096
18820000000 -7.465538 -0.5916062 16.559938 -63.841457 -30.460382 -43.92572 -7.294909 28.023314
18830000000 -7.4334512 -0.83837956 16.548832 -64.196396 -30.504526 -44.071823 -7.2643776 27.879408
18840000000 -7.4016328 -1.1060667 16.538225 -64.534508 -30.434454 -44.497551 -7.2482319 27.809439
18850000000 -7.3705173 -1.3213212 16.525368 -64.884712 -30.492043 -44.675632 -7.2201748 27.69932
18860000000 -7.3375854 -1.5995147 16.516115 -65.227333 -30.44401 -45.122074 -7.1930523 27.566994
18870000000 -7.3073492 -1.8698715 16.504164 -65.568504 -30.410854 -44.98909 -7.1627946 27.423294
18880000000 -7.2783022 -2.1794999 16.494545 -65.905579 -30.489859 -45.401608 -7.1550364 27.376932
18890000000 -7.2432389 -2.404057 16.484392 -66.248764 -30.44593 -46.224831 -7.1365004 27.237545
18900000000 -7.2111378 -2.655055 16.472111 -66.598389 -30.465736 -46.254921 -7.107811 27.013287
18910000000 -7.180016 -2.9317405 16.461542 -66.949135 -30.453232 -46.56274 -7.0751386 26.849234
18920000000 -7.1496925 -3.1581843 16.452723 -67.289047 -30.47241 -47.043274 -7.0655971 26.709743
18930000000 -7.1204906 -3.3902695 16.439699 -67.633476 -30.432415 -47.299812 -7.0384164 26.541746
18940000000 -7.1001315 -3.6607659 16.429283 -67.983131 -30.509182 -47.325436 -7.0203776 26.346121
18950000000 -7.0731249 -3.8610022 16.419664 -68.317451 -30.445248 -47.82383 -7.000206 26.183571
18960000000 -7.0491834 -4.157361 16.408264 -68.660027 -30.46352 -48.069702 -6.9760995 25.955853
18970000000 -7.0226827 -4.4425521 16.396505 -68.99408 -30.48308 -48.470093 -6.9364796 25.834179
18980000000 -6.9981298 -4.7100015 16.388327 -69.329887 -30.435392 -48.885193 -6.9192891 25.669044
18990000000 -6.9742293 -5.0223022 16.377632 -69.681442 -30.476746 -48.966175 -6.8843374 25.467901
19000000000 -6.9437337 -5.3037333 16.36722 -70.031708 -30.464783 -49.594746 -6.8711429 25.286934
19010000000 -6.9112301 -5.5741744 16.355265 -70.370819 -30.474031 -49.73455 -6.8431625 25.159763
19020000000 -6.8778081 -5.8263478 16.34416 -70.722809 -30.448675 -50.177647 -6.8159099 25.04763
19030000000 -6.8466687 -6.1106205 16.33235 -71.061516 -30.473288 -50.515804 -6.7977662 24.88014
19040000000 -6.8167305 -6.3404217 16.321854 -71.386002 -30.433962 -50.582443 -6.7739806 24.72962
19050000000 -6.7927761 -6.6350112 16.31147 -71.721672 -30.533394 -50.986996 -6.7519197 24.51626
19060000000 -6.7601614 -6.8683124 16.30224 -72.059875 -30.436964 -51.512257 -6.7195535 24.458977
19070000000 -6.745646 -7.1072245 16.293007 -72.404335 -30.50588 -51.633987 -6.6990886 24.278915
19080000000 -6.7138696 -7.3587914 16.283596 -72.740112 -30.467783 -52.021172 -6.6837511 24.134476
19090000000 -6.6941843 -7.5953746 16.273607 -73.090561 -30.505919 -52.346611 -6.6653299 23.911758
19100000000 -6.6678123 -7.8505316 16.262892 -73.428093 -30.492332 -52.65543 -6.6498718 23.877769
19110000000 -6.6453061 -8.1203623 16.250612 -73.775002 -30.471092 -52.9174 -6.6286302 23.659643
19120000000 -6.6171331 -8.3838816 16.239048 -74.112785 -30.467649 -53.509251 -6.6073828 23.439787
19130000000 -6.5954781 -8.6612921 16.22757 -74.456528 -30.474466 -53.260502 -6.595057 23.297422
19140000000 -6.5724034 -8.9516773 16.216835 -74.785858 -30.462587 -53.725533 -6.566391 23.07708
19150000000 -6.5448198 -9.234869 16.208511 -75.125725 -30.470255 -54.565109 -6.5525146 22.877947
19160000000 -6.5248122 -9.4601822 16.197048 -75.463745 -30.518757 -54.096905 -6.5379806 22.735733
19170000000 -6.5023246 -9.7321339 16.18714 -75.809029 -30.547951 -54.614048 -6.5111609 22.592445
19180000000 -6.4763708 -9.9503164 16.177032 -76.13559 -30.468855 -55.196339 -6.4784079 22.342093
19190000000 -6.4552317 -10.20715 16.166441 -76.480843 -30.470564 -55.651821 -6.4526291 22.124321
19200000000 -6.4344492 -10.435341 16.155657 -76.819489 -30.47838 -55.752079 -6.437861 22.078133
19210000000 -6.4115305 -10.691694 16.145477 -77.154884 -30.486223 -56.043697 -6.4227552 21.86853
19220000000 -6.3891807 -10.977462 16.136122 -77.487709 -30.498007 -56.621521 -6.4014602 21.662476
19230000000 -6.3676991 -11.291303 16.124039 -77.816719 -30.501507 -56.55661 -6.3771052 21.545918
19240000000 -6.3431997 -11.552544 16.114182 -78.155113 -30.469643 -56.73209 -6.3665891 21.392157
19250000000 -6.3214121 -11.860744 16.104704 -78.484535 -30.469482 -57.417461 -6.3490129 21.102777
19260000000 -6.2934914 -12.123645 16.094099 -78.821266 -30.495615 -57.821102 -6.3365049 20.94179
19270000000 -6.2710447 -12.373302 16.084417 -79.162498 -30.536434 -58.007999 -6.3135672 20.784489
19280000000 -6.2477217 -12.581784 16.076103 -79.483711 -30.536339 -57.95488 -6.3015528 20.633657
19290000000 -6.2179141 -12.808692 16.065428 -79.822037 -30.513716 -58.400753 -6.2791209 20.362541
19300000000 -6.1964107 -13.036084 16.055929 -80.15567 -30.476471 -59.052349 -6.2653432 20.173382
19310000000 -6.177031 -13.245345 16.044744 -80.48774 -30.470016 -59.131012 -6.2345209 19.974874
19320000000 -6.1578436 -13.489983 16.034647 -80.813095 -30.492641 -59.258331 -6.219255 19.814863
19330000000 -6.1413054 -13.746408 16.023756 -81.144501 -30.520159 -59.629753 -6.1971388 19.585653
19340000000 -6.1252928 -14.014179 16.014572 -81.473045 -30.566696 -60.181412 -6.1774826 19.379074
19350000000 -6.1089077 -14.279158 16.004402 -81.794479 -30.542248 -60.602356 -6.1482601 19.201469
19360000000 -6.0900011 -14.551457 15.99367 -82.130341 -30.514168 -60.815895 -6.1250463 19.08399
19370000000 -6.0636635 -14.839938 15.985247 -82.472298 -30.446819 -61.274193 -6.108243 18.896566
19380000000 -6.047575 -15.128977 15.973972 -82.797104 -30.506166 -61.279541 -6.0738811 18.687937
19390000000 -6.0249782 -15.389818 15.96532 -83.12838 -30.497692 -61.783985 -6.0682387 18.595284
19400000000 -5.9970565 -15.6228 15.956304 -83.455566 -30.504358 -62.105537 -6.0561881 18.43013
19410000000 -5.9734373 -15.877762 15.946081 -83.781616 -30.508993 -62.158936 -6.0386372 18.286999
19420000000 -5.9513292 -16.081047 15.937521 -84.120819 -30.513885 -62.486439 -6.0224357 18.052599
19430000000 -5.9318862 -16.292034 15.92775 -84.458923 -30.520126 -63.058739 -6.0132399 17.913261
19440000000 -5.9147882 -16.514578 15.919376 -84.782219 -30.50523 -63.07526 -5.9998341 17.740908
19450000000 -5.9010663 -16.762114 15.910257 -85.113182 -30.531076 -63.583897 -5.9885983 17.481068
19460000000 -5.8878026 -16.957088 15.899527 -85.446838 -30.484798 -63.42741 -5.9726968 17.29163
19470000000 -5.8751607 -17.268177 15.888815 -85.78009 -30.514248 -64.32341 -5.9535956 17.093613
19480000000 -5.8574524 -17.548584 15.87794 -86.103577 -30.500944 -64.440964 -5.9379196 16.830847
19490000000 -5.8423109 -17.796616 15.868868 -86.430756 -30.455437 -64.504494 -5.9228868 16.618214
19500000000 -5.8265839 -18.081209 15.858795 -86.760963 -30.502274 -64.883324 -5.8975501 16.454338
19510000000 -5.8063054 -18.340899 15.850987 -87.090584 -30.475876 -65.03656 -5.881134 16.265656
19520000000 -5.783639 -18.639942 15.842418 -87.412735 -30.51683 -65.737556 -5.8611517 16.075464
19530000000 -5.7609634 -18.870661 15.833817 -87.745316 -30.504192 -65.873535 -5.8403993 15.930083
19540000000 -5.7381463 -19.116102 15.824088 -88.083046 -30.502878 -66.297043 -5.8209119 15.697918
19550000000 -5.7228217 -19.317688 15.815231 -88.407562 -30.473625 -66.379562 -5.8022428 15.500293
19560000000 -5.7071295 -19.56406 15.803793 -88.737389 -30.547129 -66.987556 -5.7889147 15.351645
19570000000 -5.6916614 -19.761736 15.794767 -89.0662 -30.555763 -67.092636 -5.7729363 15.161217
19580000000 -5.677433 -19.992455 15.785177 -89.392761 -30.478975 -67.505714 -5.7697783 14.905944
19590000000 -5.6652603 -20.249069 15.777311 -89.713707 -30.430523 -67.933327 -5.7421851 14.74637
19600000000 -5.6547832 -20.476202 15.769072 -90.048218 -30.501915 -68.016731 -5.731246 14.529125
19610000000 -5.6427679 -20.76087 15.761538 -90.364052 -30.493332 -68.291748 -5.7139969 14.268547
19620000000 -5.6262593 -21.023033 15.753633 -90.690498 -30.450617 -68.738297 -5.6965809 14.101755
19630000000 -5.6144471 -21.296688 15.745279 -91.025719 -30.467184 -68.679115 -5.679616 13.893808
19640000000 -5.5953522 -21.585115 15.736346 -91.355591 -30.502377 -69.260147 -5.6656003 13.680559
19650000000 -5.5753431 -21.850843 15.726195 -91.684967 -30.497898 -69.759544 -5.6442752 13.456145
19660000000 -5.5578551 -22.108412 15.715418 -92.017357 -30.462914 -69.926689 -5.6300349 13.248415
19670000000 -5.5396914 -22.370131 15.70506 -92.33873 -30.501871 -70.358734 -5.6101236 13.059695
19680000000 -5.5226793 -22.58963 15.696153 -92.667763 -30.430656 -70.365776 -5.5925651 12.897882
19690000000 -5.5094323 -22.837515 15.689254 -92.988121 -30.486494 -71.131683 -5.5826421 12.72655
19700000000 -5.4967184 -23.063215 15.681316 -93.303879 -30.471565 -71.401894 -5.5702453 12.577243
19710000000 -5.486763 -23.312145 15.676337 -93.635292 -30.46468 -71.546318 -5.5545697 12.364469
19720000000 -5.4763641 -23.543762 15.669233 -93.966248 -30.427397 -71.888206 -5.5459986 12.168181
19730000000 -5.4663005 -23.795683 15.661079 -94.298935 -30.47649 -71.895866 -5.5342979 11.966348
19740000000 -5.4543643 -24.057981 15.652017 -94.620697 -30.465717 -72.374443 -5.5143104 11.779371
19750000000 -5.4365058 -24.336561 15.643666 -94.947372 -30.468836 -73.158165 -5.5065441 11.479375
19760000000 -5.4230642 -24.618385 15.633939 -95.267754 -30.456621 -72.95594 -5.4945602 11.291412
19770000000 -5.4047499 -24.892981 15.625009 -95.590973 -30.454088 -73.184532 -5.4772639 11.131584
19780000000 -5.3902421 -25.143745 15.616709 -95.897926 -30.434464 -73.612717 -5.4626017 10.890355
19790000000 -5.3778334 -25.367622 15.608795 -96.222336 -30.494413 -73.929474 -5.4470229 10.681741
19800000000 -5.3627825 -25.600304 15.600358 -96.539551 -30.459364 -74.269234 -5.419734 10.470491
19810000000 -5.3505573 -25.835102 15.595194 -96.864952 -30.476673 -74.799538 -5.403955 10.229795
19820000000 -5.3404856 -26.048208 15.586882 -97.193924 -30.457537 -74.571045 -5.3911586 10.101183
19830000000 -5.3282719 -26.296942 15.578655 -97.524002 -30.490013 -75.031677 -5.379252 9.8949194
19840000000 -5.31604 -26.529272 15.56954 -97.848549 -30.453033 -75.651466 -5.3599396 9.6678715
19850000000 -5.3066654 -26.802444 15.560597 -98.167831 -30.496538 -75.732071 -5.3510537 9.5201807
19860000000 -5.2967625 -27.083401 15.55267 -98.479851 -30.471289 -75.845619 -5.3438716 9.3109636
19870000000 -5.2839155 -27.357841 15.544375 -98.805626 -30.474394 -76.268387 -5.3200445 9.0511627
19880000000 -5.269918 -27.634254 15.539118 -99.129578 -30.503128 -76.830978 -5.3146868 8.9622536
19890000000 -5.2582994 -27.88537 15.531828 -99.451073 -30.449467 -76.947662 -5.3043566 8.6878147
19900000000 -5.2443585 -28.127647 15.522595 -99.770676 -30.474195 -77.336754 -5.2737827 8.5191383
19910000000 -5.2299566 -28.329546 15.51726 -100.10063 -30.408125 -77.331635 -5.2669358 8.2739506
19920000000 -5.2184954 -28.560522 15.509674 -100.4203 -30.393181 -77.929893 -5.2544532 8.0394859
19930000000 -5.2065735 -28.773525 15.500568 -100.7393 -30.401001 -78.313972 -5.2468233 7.8622899
19940000000 -5.2014642 -28.978386 15.494462 -101.04684 -30.426607 -78.344193 -5.230444 7.6092272
19950000000 -5.1945372 -29.226509 15.486554 -101.36767 -30.417521 -78.726639 -5.2161932 7.4348574
19960000000 -5.1842337 -29.461416 15.479261 -101.70078 -30.442757 -78.973442 -5.2181592 7.2363386
19970000000 -5.1801987 -29.735926 15.472214 -102.01942 -30.414015 -79.282242 -5.1861591 7.0487385
19980000000 -5.1745763 -30.024845 15.46629 -102.34688 -30.384279 -79.582161 -5.182281 6.8153534
19990000000 -5.1657996 -30.308561 15.459614 -102.6613 -30.381227 -79.945251 -5.1629009 6.6122456
20000000000 -5.160233 -30.573524 15.452756 -102.99512 -30.387709 -79.721039 -5.1501241 6.3837781
20010000000 -5.1490831 -30.895456 15.445065 -103.31315 -30.417288 -80.68692 -5.1412683 6.2038045
20020000000 -5.1372519 -31.139635 15.436923 -103.6403 -30.445324 -80.595901 -5.1278806 6.0497956
20030000000 -5.1215215 -31.391132 15.430698 -103.95243 -30.386732 -81.072266 -5.1035399 5.8015547
20040000000 -5.1076746 -31.624228 15.423153 -104.26842 -30.427513 -81.316132 -5.0921044 5.600594
20050000000 -5.0936809 -31.880749 15.416324 -104.58603 -30.401211 -81.986916 -5.0792389 5.4843087
20060000000 -5.0824752 -32.106869 15.409517 -104.90856 -30.424852 -82.064827 -5.0753908 5.3234749
20070000000 -5.0749154 -32.356739 15.403143 -105.22915 -30.418756 -82.318855 -5.0687523 5.1210938
20080000000 -5.0650463 -32.592213 15.397558 -105.56081 -30.428562 -82.902458 -5.0538287 4.9462342
20090000000 -5.0609488 -32.822514 15.389823 -105.87544 -30.374153 -83.143761 -5.0309238 4.676899
20100000000 -5.0582509 -33.031879 15.385341 -106.20164 -30.389448 -83.144386 -5.0319486 4.5078974
20110000000 -5.0553184 -33.277859 15.379885 -106.53046 -30.370892 -83.776466 -5.0217557 4.2984104
20120000000 -5.0449672 -33.517178 15.374053 -106.85023 -30.350586 -83.798111 -5.0104637 4.1131415
20130000000 -5.0457492 -33.747265 15.368378 -107.1626 -30.382017 -84.268555 -5.0073376 3.8966103
20140000000 -5.0422959 -34.00219 15.36354 -107.47917 -30.357855 -84.423584 -4.9892006 3.6450393
20150000000 -5.0354881 -34.232903 15.359526 -107.80383 -30.40551 -84.537186 -4.9778037 3.4579818
20160000000 -5.0313692 -34.532391 15.354852 -108.10565 -30.366938 -84.959503 -4.963459 3.21504
20170000000 -5.0255208 -34.784092 15.349622 -108.4336 -30.374142 -85.505852 -4.9488115 3.0144689
20180000000 -5.0161433 -35.081718 15.34339 -108.74701 -30.376537 -85.844887 -4.9329333 2.8580258
20190000000 -5.0124965 -35.320148 15.337728 -109.07602 -30.31122 -85.685356 -4.9140468 2.6783671
20200000000 -5.0066299 -35.609859 15.331697 -109.39786 -30.346989 -86.488083 -4.908494 2.459249
20210000000 -5.0003037 -35.865219 15.324882 -109.72619 -30.357241 -86.740791 -4.8989577 2.3013496
20220000000 -4.9947162 -36.115482 15.318591 -110.04382 -30.349871 -86.934662 -4.8891258 2.1033771
20230000000 -4.9853201 -36.376892 15.313732 -110.3499 -30.333248 -87.36763 -4.8708143 1.9234551
20240000000 -4.9794884 -36.616112 15.309933 -110.66835 -30.365974 -87.345108 -4.8566027 1.7802416
20250000000 -4.9729776 -36.851215 15.304857 -110.98478 -30.313366 -87.799515 -4.8413258 1.5711108
20260000000 -4.9665947 -37.08181 15.299135 -111.30552 -30.299833 -87.820282 -4.8286767 1.4116629
20270000000 -4.9598212 -37.333012 15.295498 -111.62172 -30.311163 -88.555847 -4.8194342 1.1796257
20280000000 -4.9568734 -37.565689 15.287689 -111.94451 -30.293716 -88.522728 -4.8161049 1.0171485
20290000000 -4.9527235 -37.851536 15.280829 -112.26774 -30.296078 -89.161736 -4.8023891 0.90379155
20300000000 -4.9549346 -38.107151 15.276918 -112.57375 -30.305767 -89.529869 -4.7872963 0.61965048
20310000000 -4.9526873 -38.347881 15.271669 -112.89709 -30.28928 -89.469353 -4.7872262 0.5068928
20320000000 -4.9523611 -38.630428 15.26899 -113.2123 -30.302212 -89.939659 -4.7837863 0.29515341
20330000000 -4.9492278 -38.875145 15.265037 -113.52251 -30.298101 -89.990013 -4.7680635 0.13521504
20340000000 -4.9465213 -39.14925 15.261984 -113.85944 -30.308502 -90.482628 -4.75947 -0.13784587
20350000000 -4.9438353 -39.386665 15.258882 -114.19034 -30.254461 -90.530899 -4.7508354 -0.29852012
20360000000 -4.9377832 -39.648411 15.255138 -114.48888 -30.279062 -91.243156 -4.7448063 -0.55926919
20370000000 -4.9328127 -39.910095 15.249711 -114.80213 -30.311007 -91.449478 -4.7263303 -0.72824275
20380000000 -4.9319587 -40.169361 15.243428 -115.11885 -30.262154 -91.525436 -4.7138252 -0.93495709
20390000000 -4.929842 -40.431389 15.238566 -115.44842 -30.300734 -92.201866 -4.7017269 -1.1195509
20400000000 -4.9247036 -40.662643 15.234763 -115.75911 -30.219645 -92.021507 -4.6758289 -1.2868854
20410000000 -4.9264741 -40.945374 15.231133 -116.06413 -30.297041 -92.649216 -4.6697149 -1.3966194
20420000000 -4.9246526 -41.201004 15.228762 -116.38557 -30.23451 -93.049377 -4.6598988 -1.5745168
20430000000 -4.9260778 -41.465656 15.225136 -116.71418 -30.244825 -93.316261 -4.6481352 -1.6629002
20440000000 -4.9284568 -41.702888 15.223404 -117.02563 -30.220514 -93.809593 -4.6471624 -1.8582183
20450000000 -4.9256573 -41.953182 15.222201 -117.33806 -30.152674 -93.691574 -4.6351862 -2.0300431
20460000000 -4.9267654 -42.205887 15.218993 -117.65295 -30.17749 -94.041122 -4.6315856 -2.2031565
20470000000 -4.9289727 -42.487942 15.215416 -117.98833 -30.162203 -94.444374 -4.6218948 -2.3968163
20480000000 -4.9284463 -42.752121 15.21071 -118.31139 -30.253363 -94.556038 -4.622602 -2.556792
20490000000 -4.9251785 -43.048298 15.20959 -118.65321 -30.176159 -95.049263 -4.6196179 -2.7204394
20500000000 -4.9278021 -43.303329 15.207437 -118.97154 -30.126568 -95.529831 -4.6088037 -2.9462316
20510000000 -4.9325037 -43.586231 15.206426 -119.29077 -30.170116 -95.549324 -4.6007628 -3.0708065
20520000000 -4.9338794 -43.846218 15.205643 -119.6156 -30.151571 -95.845757 -4.5875931 -3.3212249
20530000000 -4.9371095 -44.084129 15.203962 -119.94594 -30.146238 -96.232613 -4.5888677 -3.5598876
20540000000 -4.9438872 -44.362564 15.202714 -120.282 -30.135521 -96.812592 -4.5698495 -3.6038008
20550000000 -4.9478793 -44.645142 15.199651 -120.60143 -30.157537 -96.918762 -4.5562806 -3.84199
20560000000 -4.9536514 -44.923542 15.195342 -120.93327 -30.151588 -97.339386 -4.5495028 -3.9980564
20570000000 -4.9545827 -45.18177 15.192142 -121.25468 -30.089237 -97.382713 -4.5286784 -4.1153965
20580000000 -4.9526668 -45.454464 15.188441 -121.56595 -30.133236 -97.589348 -4.5358944 -4.1849012
20590000000 -4.9566603 -45.725395 15.188229 -121.89584 -30.124426 -98.092407 -4.5310407 -4.409409
20600000000 -4.9582472 -45.984776 15.186303 -122.20688 -30.124361 -98.31797 -4.5243349 -4.5278678
20610000000 -4.9580336 -46.250267 15.187041 -122.52943 -30.114895 -98.588364 -4.5172343 -4.699532
20620000000 -4.9651351 -46.517624 15.188004 -122.86479 -30.034437 -99.156235 -4.5089483 -4.8913312
20630000000 -4.9664068 -46.755245 15.186843 -123.1805 -30.038172 -99.191162 -4.4914451 -5.0941076
20640000000 -4.9755721 -46.988705 15.184955 -123.52074 -30.069109 -99.377823 -4.4937935 -5.2152748
20650000000 -4.9846587 -47.239498 15.182008 -123.84576 -30.043287 -100.15319 -4.4951591 -5.3449821
20660000000 -4.9951158 -47.452431 15.181071 -124.17268 -30.068747 -100.44193 -4.4938192 -5.5365391
20670000000 -5.0035801 -47.716503 15.177891 -124.49329 -30.004946 -100.42284 -4.4873867 -5.7549934
20680000000 -5.0165329 -48.013084 15.178637 -124.80698 -30.023325 -100.91432 -4.4761744 -5.8466144
20690000000 -5.0316772 -48.328812 15.178752 -125.11773 -30.033449 -101.1364 -4.4721398 -5.9702392
20700000000 -5.0390592 -48.635422 15.180648 -125.45348 -29.954308 -101.50767 -4.4702902 -6.1364918
20710000000 -5.049118 -48.940262 15.181326 -125.774 -29.994152 -101.77408 -4.4637733 -6.2267795
20720000000 -5.0583367 -49.247475 15.182921 -126.10958 -29.989183 -102.25491 -4.4593906 -6.401855
20730000000 -5.0665278 -49.546799 15.183518 -126.45601 -29.943542 -102.51558 -4.4589128 -6.6238899
20740000000 -5.0689216 -49.8241 15.182507 -126.78802 -29.921673 -102.88091 -4.448895 -6.7414336
20750000000 -5.0743952 -50.072025 15.182775 -127.10071 -29.925489 -102.93681 -4.4448056 -6.8725867
20760000000 -5.0835004 -50.318615 15.183925 -127.41928 -29.973219 -103.49738 -4.4418402 -7.0323081
20770000000 -5.0925875 -50.584175 15.185359 -127.74974 -29.914303 -103.65022 -4.4359655 -7.152544
20780000000 -5.104476 -50.868801 15.185374 -128.06984 -29.866293 -104.14344 -4.4377789 -7.3194757
20790000000 -5.1245298 -51.140057 15.186757 -128.40421 -29.8985 -104.50781 -4.4339838 -7.3944345
20800000000 -5.1420431 -51.442059 15.189843 -128.76349 -29.869099 -105.07304 -4.4270945 -7.5695972
20810000000 -5.1576056 -51.759613 15.191588 -129.09671 -29.834911 -104.89246 -4.4225888 -7.727746
20820000000 -5.1730657 -52.045967 15.194164 -129.45128 -29.844488 -105.31073 -4.4255772 -7.8403172
20830000000 -5.1902428 -52.393398 15.193589 -129.7941 -29.835684 -105.94677 -4.4165616 -8.0129461
20840000000 -5.2050214 -52.670441 15.195966 -130.12906 -29.841425 -105.78971 -4.4270048 -8.1805735
20850000000 -5.222373 -52.954521 15.198956 -130.44695 -29.807142 -106.50166 -4.4134598 -8.3059387
20860000000 -5.2316546 -53.245621 15.20025 -130.78847 -29.80246 -106.8308 -4.4145899 -8.3526497
20870000000 -5.2439284 -53.508629 15.20288 -131.11122 -29.806906 -106.84116 -4.4003892 -8.4901285
20880000000 -5.2618127 -53.78577 15.203197 -131.44717 -29.808172 -107.18635 -4.4049335 -8.5745049
20890000000 -5.2776356 -54.100201 15.208406 -131.78323 -29.745848 -107.56767 -4.3819647 -8.8227072
20900000000 -5.2991037 -54.36071 15.211569 -132.13176 -29.805597 -107.83513 -4.3909421 -8.8202066
20910000000 -5.3226089 -54.696465 15.213943 -132.4866 -29.748322 -108.28996 -4.3920445 -8.9632101
20920000000 -5.3469701 -55.053135 15.214803 -132.83446 -29.719608 -108.58275 -4.3873458 -9.0454273
20930000000 -5.3671098 -55.384502 15.218013 -133.19305 -29.711069 -109.19293 -4.3907676 -9.1576681
20940000000 -5.3949304 -55.71896 15.219543 -133.56355 -29.715481 -109.39658 -4.4050531 -9.1537848
20950000000 -5.4117713 -56.032249 15.2243 -133.88406 -29.661037 -109.52679 -4.4074545 -9.3567314
20960000000 -5.4272075 -56.337261 15.228914 -134.22424 -29.665226 -109.85716 -4.4089727 -9.4626637
20970000000 -5.4450617 -56.62809 15.234222 -134.55756 -29.684902 -110.40873 -4.4095731 -9.6273327
20980000000 -5.4646373 -56.939625 15.237347 -134.91107 -29.64892 -110.70239 -4.4242682 -9.7826004
20990000000 -5.4841022 -57.2276 15.238279 -135.24942 -29.653166 -111.40801 -4.4276338 -9.8946104
21000000000 -5.5014725 -57.518349 15.24323 -135.61179 -29.605001 -111.45913 -4.4306297 -10.154466
21010000000 -5.5267925 -57.817375 15.24583 -135.98236 -29.590416 -111.65665 -4.4236932 -10.276704
21020000000 -5.5559015 -58.111954 15.249303 -136.33755 -29.555758 -112.17775 -4.427814 -10.435362
21030000000 -5.5826592 -58.412094 15.253582 -136.69249 -29.577066 -112.53249 -4.4199224 -10.56752
21040000000 -5.6143732 -58.717567 15.255664 -137.05159 -29.545237 -112.6468 -4.4243731 -10.585877
21050000000 -5.6543546 -59.017315 15.260401 -137.39633 -29.54228 -113.24448 -4.4161329 -10.684268
21060000000 -5.6859508 -59.373859 15.26707 -137.73331 -29.522694 -113.44904 -4.4099655 -10.76672
21070000000 -5.7185607 -59.724686 15.271511 -138.10611 -29.481493 -113.7452 -4.4261336 -10.85818
21080000000 -5.7533937 -60.043026 15.274469 -138.45294 -29.478081 -114.0947 -4.4241939 -10.853496
21090000000 -5.7838817 -60.380531 15.282143 -138.8204 -29.496458 -114.73518 -4.4263787 -11.01065
21100000000 -5.8130512 -60.740749 15.285357 -139.17526 -29.47406 -115.02251 -4.4324508 -11.041571
21110000000 -5.8439565 -61.124096 15.292382 -139.54018 -29.422836 -115.30322 -4.447298 -11.155025
21120000000 -5.8795133 -61.484879 15.296765 -139.90475 -29.392803 -115.71442 -4.4481869 -11.150308
21130000000 -5.9133582 -61.831772 15.30263 -140.26921 -29.385431 -116.05331 -4.465219 -11.290897
21140000000 -5.9492207 -62.188278 15.31219 -140.63704 -29.398029 -116.54597 -4.4669676 -11.391519
21150000000 -5.9892602 -62.53743 15.318933 -141.00237 -29.36808 -116.84291 -4.4756179 -11.489228
21160000000 -6.0289378 -62.847359 15.325685 -141.37895 -29.369488 -117.53435 -4.481122 -11.586266
21170000000 -6.0684266 -63.188854 15.332767 -141.75977 -29.319527 -117.85408 -4.4902487 -11.705314
21180000000 -6.1065078 -63.550449 15.339281 -142.1353 -29.260887 -118.2129 -4.4963574 -11.817572
21190000000 -6.1459451 -63.914951 15.346588 -142.52963 -29.286724 -118.50702 -4.5002003 -11.914515
21200000000 -6.1856194 -64.283905 15.349145 -142.89542 -29.260321 -119.06091 -4.5162897 -11.949726
21210000000 -6.2292209 -64.669319 15.355483 -143.27982 -29.264797 -119.2719 -4.5167241 -12.036019
21220000000 -6.2766986 -65.010735 15.36289 -143.6651 -29.290565 -119.54562 -4.5199037 -12.169345
21230000000 -6.3177214 -65.427048 15.368837 -144.04958 -29.221291 -119.82305 -4.5379238 -12.169744
21240000000 -6.3664727 -65.75106 15.378242 -144.42612 -29.228193 -120.45006 -4.547668 -12.280298
21250000000 -6.4154792 -66.093628 15.386768 -144.80672 -29.176973 -120.51401 -4.5508456 -12.367421
21260000000 -6.4680076 -66.436134 15.393587 -145.18784 -29.140444 -121.21963 -4.5605602 -12.434321
21270000000 -6.5219531 -66.784744 15.399412 -145.58423 -29.14856 -121.55454 -4.57236 -12.462781
21280000000 -6.5802727 -67.129219 15.406 -145.99339 -29.127354 -121.97557 -4.5766659 -12.59445
21290000000 -6.6353087 -67.546463 15.41473 -146.38313 -29.119766 -122.30526 -4.5772953 -12.685287
21300000000 -6.6946402 -67.955856 15.418653 -146.78488 -29.098057 -123.03172 -4.5991635 -12.714901
21310000000 -6.7518048 -68.393188 15.423464 -147.1747 -29.066803 -123.25205 -4.6134791 -12.71553
21320000000 -6.8062711 -68.867188 15.433865 -147.56538 -28.993633 -123.58015 -4.6205373 -12.749542
21330000000 -6.8670349 -69.316597 15.439354 -147.95436 -29.025349 -124.03554 -4.6345344 -12.802343
21340000000 -6.9251323 -69.776405 15.449555 -148.37234 -29.024712 -124.33028 -4.655015 -12.887295
21350000000 -6.9876828 -70.162605 15.45828 -148.78587 -28.989218 -124.99899 -4.6576147 -12.896669
21360000000 -7.0529704 -70.555092 15.463433 -149.21643 -28.996462 -125.39376 -4.6804357 -12.96924
21370000000 -7.1151891 -70.965767 15.471989 -149.64421 -28.93232 -125.79536 -4.6921334 -13.049121
21380000000 -7.1802473 -71.285378 15.478737 -150.05368 -28.952 -126.05506 -4.7126689 -13.119234
21390000000 -7.2450523 -71.655006 15.480781 -150.44069 -28.969913 -126.46976 -4.7205224 -13.069224
21400000000 -7.313776 -72.02317 15.488748 -150.83426 -28.878218 -127.21555 -4.7425122 -13.136742
21410000000 -7.3804412 -72.428719 15.49577 -151.22064 -28.907196 -127.26221 -4.7598858 -13.226731
21420000000 -7.4599361 -72.894173 15.504476 -151.61528 -28.89255 -127.98788 -4.7604914 -13.190474
21430000000 -7.540791 -73.39592 15.513955 -152.0513 -28.815285 -128.28317 -4.7848144 -13.217624
21440000000 -7.6401134 -73.941223 15.524503 -152.51692 -28.829556 -128.8569 -4.7963443 -13.277427
21450000000 -7.7260051 -74.424294 15.53318 -152.96645 -28.803505 -129.27936 -4.7981806 -13.347828
21460000000 -7.8197484 -74.952454 15.541004 -153.42398 -28.766371 -129.6481 -4.82585 -13.338096
21470000000 -7.9012699 -75.425087 15.547516 -153.86461 -28.775772 -129.95854 -4.8429103 -13.311834
21480000000 -7.9775815 -75.888382 15.553781 -154.28177 -28.715836 -130.5101 -4.8622723 -13.343215
21490000000 -8.0586109 -76.293724 15.562706 -154.69051 -28.766909 -131.07016 -4.8669548 -13.324683
21500000000 -8.1356506 -76.733177 15.567287 -155.08737 -28.753841 -131.49988 -4.8978467 -13.294455
21510000000 -8.2233543 -77.15947 15.576615 -155.49788 -28.690826 -132.11418 -4.9092011 -13.284258
21520000000 -8.3182936 -77.636963 15.58434 -155.91393 -28.709799 -132.48599 -4.9205565 -13.241199
21530000000 -8.4166012 -78.14463 15.593893 -156.36642 -28.660515 -132.88821 -4.9401369 -13.291152
21540000000 -8.5277157 -78.695511 15.602356 -156.83693 -28.643991 -133.2309 -4.961596 -13.204951
21550000000 -8.6424465 -79.233475 15.611156 -157.31403 -28.629862 -133.67781 -4.9809542 -13.277936
21560000000 -8.7687502 -79.858887 15.618344 -157.80977 -28.570591 -134.51363 -5.0167656 -13.176939
21570000000 -8.8889885 -80.45607 15.625181 -158.30214 -28.537012 -134.97556 -5.0345049 -13.179116
21580000000 -9.0080004 -80.963593 15.633591 -158.78658 -28.580593 -135.34236 -5.0689349 -13.202862
21590000000 -9.1178493 -81.434929 15.64186 -159.23839 -28.580587 -135.56747 -5.0898647 -13.196965
21600000000 -9.2294664 -81.899757 15.647637 -159.65634 -28.529034 -136.34081 -5.1096292 -13.198022
21610000000 -9.3328886 -82.259995 15.657104 -160.06111 -28.526936 -136.9917 -5.1210175 -13.226374
21620000000 -9.4448338 -82.824631 15.666 -160.49927 -28.501732 -136.92867 -5.1412492 -13.211671
21630000000 -9.5707617 -83.324432 15.672445 -160.96207 -28.477476 -137.71849 -5.1641989 -13.215752
21640000000 -9.7201147 -83.95253 15.680873 -161.44669 -28.438204 -138.30737 -5.1846795 -13.200466
21650000000 -9.878273 -84.624939 15.685777 -161.95439 -28.452961 -138.62717 -5.2026687 -13.158506
21660000000 -10.045105 -85.314407 15.691983 -162.4613 -28.397987 -139.19122 -5.2299047 -13.100041
21670000000 -10.214195 -85.995392 15.695784 -162.9691 -28.412865 -140.05783 -5.2485304 -12.998603
21680000000 -10.371499 -86.636383 15.705297 -163.44502 -28.407394 -140.16635 -5.2613306 -12.98785
21690000000 -10.522303 -87.294113 15.707587 -163.91298 -28.419661 -140.98438 -5.2947888 -12.903782
21700000000 -10.663676 -87.921768 15.716366 -164.34863 -28.359087 -141.45424 -5.3084621 -12.777744
21710000000 -10.811009 -88.542244 15.722346 -164.81583 -28.369823 -141.99532 -5.3300848 -12.727558
21720000000 -10.965241 -89.27964 15.727484 -165.28867 -28.324173 -142.32089 -5.3670464 -12.57066
21730000000 -11.145822 -89.979156 15.733723 -165.79849 -28.325014 -142.90828 -5.3804307 -12.536573
21740000000 -11.335187 -90.745399 15.738908 -166.34601 -28.321836 -143.37888 -5.4076266 -12.431732
21750000000 -11.538934 -91.509781 15.742494 -166.86504 -28.294586 -144.01726 -5.4353747 -12.3468
21760000000 -11.756462 -92.27002 15.746081 -167.39549 -28.261522 -144.48337 -5.4706583 -12.28586
21770000000 -11.97546 -93.016144 15.751444 -167.90936 -28.242428 -145.21919 -5.4827533 -12.176945
21780000000 -12.196704 -93.813164 15.756459 -168.40121 -28.252199 -145.63054 -5.5137043 -12.003778
21790000000 -12.407357 -94.605583 15.761179 -168.90031 -28.251617 -146.01788 -5.5462236 -11.837351
21800000000 -12.637366 -95.427101 15.764862 -169.39224 -28.218168 -146.67783 -5.5611753 -11.792217
21810000000 -12.865518 -96.267082 15.770146 -169.89806 -28.224773 -147.35388 -5.5875216 -11.629471
21820000000 -13.11065 -97.209991 15.774012 -170.43367 -28.236794 -147.9527 -5.6205373 -11.536546
21830000000 -13.36216 -98.263252 15.775559 -170.97125 -28.207121 -148.3922 -5.645329 -11.370029
21840000000 -13.623462 -99.256866 15.777373 -171.51158 -28.187187 -149.09879 -5.6799068 -11.266647
21850000000 -13.909501 -100.2722 15.781625 -172.04582 -28.147888 -149.55423 -5.7174926 -11.156653
21860000000 -14.184715 -101.32055 15.783114 -172.57578 -28.153137 -150.01723 -5.7388678 -11.086858
21870000000 -14.499351 -102.41173 15.784156 -173.11012 -28.166529 -150.75639 -5.7688332 -10.865349
21880000000 -14.817477 -103.46871 15.786942 -173.65062 -28.128368 -151.25591 -5.7809696 -10.759509
21890000000 -15.130509 -104.54766 15.789474 -174.14894 -28.110395 -151.86003 -5.8032761 -10.609639
21900000000 -15.457713 -105.7533 15.790941 -174.67932 -28.098877 -152.45624 -5.8243852 -10.451189
21910000000 -15.799638 -107.03703 15.792643 -175.19865 -28.103773 -152.99638 -5.8378983 -10.322201
21920000000 -16.156393 -108.57117 15.793765 -175.74391 -28.08819 -153.69739 -5.8516445 -10.122589
21930000000 -16.547901 -110.25002 15.791076 -176.29205 -28.086449 -154.16164 -5.887517 -9.8911133
21940000000 -16.980286 -112.11674 15.791542 -176.8651 -28.118395 -154.90172 -5.9135232 -9.7396078
21950000000 -17.403671 -114.00813 15.787573 -177.43871 -28.105305 -155.40717 -5.9469943 -9.4771023
21960000000 -17.884033 -116.09128 15.786966 -177.99367 -28.082609 -156.23488 -5.9622097 -9.2523851
21970000000 -18.355358 -118.39268 15.782713 -178.56017 -28.058498 -156.48514 -5.9973497 -9.0615273
21980000000 -18.834587 -120.61476 15.782308 -179.13591 -28.097555 -157.53316 -6.0195179 -8.8191328
21990000000 -19.358385 -123.19354 15.780668 -179.70302 -28.076551 -157.62038 -6.0459137 -8.6048069
22000000000 -19.898849 -125.96642 15.77743 179.72044 -28.050295 -158.47446 -6.0797687 -8.3582735
22010000000 -20.46879 -129.09132 15.77326 179.13509 -28.080366 -159.13101 -6.096662 -8.2600155
22020000000 -21.075497 -132.80988 15.767685 178.52805 -28.049212 -159.61632 -6.1194277 -8.0228395
22030000000 -21.717344 -137.14006 15.762229 177.94859 -28.050821 -160.27385 -6.1505599 -7.8623323
22040000000 -22.33013 -141.91737 15.75657 177.36516 -28.054903 -160.81194 -6.1685886 -7.5955043
22050000000 -22.915701 -147.34984 15.750638 176.79311 -28.047583 -161.59464 -6.1957102 -7.3615508
22060000000 -23.440178 -153.26845 15.744711 176.23225 -28.02944 -162.24092 -6.2118087 -7.1207504
22070000000 -23.892199 -159.75589 15.740068 175.64844 -28.072384 -163.08109 -6.2262697 -6.9123273
22080000000 -24.30991 -167.21344 15.732039 175.06273 -28.050968 -163.39197 -6.2477646 -6.7638998
22090000000 -24.655973 -175.29948 15.723859 174.47278 -28.033564 -164.01753 -6.2655983 -6.4568753
22100000000 -24.830549 176.24821 15.714105 173.87039 -28.048695 -164.70097 -6.2669859 -6.1916332
22110000000 -24.893064 167.94807 15.703965 173.2928 -28.071089 -165.22325 -6.2843475 -5.9115005
22120000000 -24.731596 159.60603 15.690236 172.72314 -28.098356 -166.01871 -6.3118052 -5.6745772
22130000000 -24.466337 151.6152 15.681844 172.20572 -28.033869 -166.52448 -6.3153048 -5.3085489
22140000000 -23.988817 144.50462 15.672746 171.65707 -28.094982 -167.1091 -6.3373995 -5.0531874
22150000000 -23.429308 137.71979 15.664574 171.07794 -28.086288 -167.94019 -6.3452268 -4.7639356
22160000000 -22.753004 131.40143 15.655185 170.48917 -28.093843 -168.3949 -6.3569593 -4.4737887
22170000000 -22.081398 125.79258 15.641789 169.87602 -28.12266 -168.84795 -6.3692813 -4.1342139
22180000000 -21.402681 120.79899 15.628164 169.23402 -28.101826 -169.72926 -6.3885679 -3.7957103
22190000000 -20.751539 116.61722 15.613265 168.63148 -28.097385 -170.3577 -6.4181523 -3.5022655
22200000000 -20.157854 113.11819 15.596819 168.01566 -28.097881 -171.19266 -6.425766 -3.1790805
22210000000 -19.595331 109.81632 15.581455 167.4265 -28.093594 -171.57253 -6.4453135 -2.8792582
22220000000 -19.041327 106.89161 15.565927 166.82217 -28.165703 -172.37845 -6.467649 -2.628113
22230000000 -18.48715 104.20356 15.547467 166.23384 -28.167585 -172.95529 -6.473402 -2.3306704
22240000000 -17.971069 101.76571 15.533516 165.63704 -28.20505 -173.16515 -6.4783154 -2.1369672
22250000000 -17.44956 99.420677 15.517912 165.03275 -28.232695 -173.93275 -6.4891138 -1.9889163
22260000000 -16.974068 97.328308 15.500627 164.42378 -28.202366 -174.45667 -6.5009913 -1.7867404
22270000000 -16.490585 95.405487 15.483551 163.8118 -28.181227 -175.21414 -6.5043135 -1.4556757
22280000000 -16.019524 93.743057 15.461782 163.19875 -28.185926 -175.96112 -6.5042133 -1.2171119
22290000000 -15.577364 91.973549 15.439479 162.57132 -28.249912 -176.43167 -6.5001903 -0.98795891
22300000000 -15.158897 90.402908 15.413539 161.94862 -28.231365 -177.10869 -6.5006328 -0.64035332
22310000000 -14.762215 88.944511 15.391625 161.34125 -28.246628 -177.86339 -6.5148926 -0.33064657
22320000000 -14.397025 87.599007 15.368837 160.7643 -28.271873 -178.33937 -6.5007868 -0.1332034
22330000000 -14.05765 86.423088 15.346324 160.17844 -28.298044 -178.96594 -6.5040665 0.10988964
22340000000 -13.741174 85.305733 15.32486 159.61241 -28.286306 -179.86429 -6.4925761 0.42590696
22350000000 -13.421326 84.258209 15.305563 159.0439 -28.337986 179.59366 -6.494668 0.71269047
22360000000 -13.112825 83.214874 15.282566 158.43991 -28.368284 179.1904 -6.4981103 0.98036975
22370000000 -12.795707 82.099281 15.257977 157.82684 -28.422836 178.28011 -6.4898949 1.2348754
22380000000 -12.496127 80.954086 15.229698 157.21042 -28.365601 177.69785 -6.4981394 1.4593711
22390000000 -12.204531 79.737625 15.199038 156.56734 -28.40708 177.26097 -6.4968505 1.8183134
22400000000 -11.929096 78.676323 15.168705 155.97403 -28.451252 176.4906 -6.4810195 2.0485754
22410000000 -11.681657 77.64212 15.140521 155.40623 -28.466707 175.91385 -6.471931 2.3121288
22420000000 -11.435745 76.714462 15.114894 154.84669 -28.509569 175.25365 -6.4690561 2.6356668
22430000000 -11.193873 75.800621 15.08956 154.28339 -28.485289 174.69824 -6.4649658 2.8925002
22440000000 -10.958549 74.928902 15.064368 153.7023 -28.578402 174.27136 -6.4519854 3.2161388
22450000000 -10.723847 74.088272 15.03375 153.10942 -28.549288 173.47107 -6.4641438 3.4080091
22460000000 -10.491749 73.188568 15.00521 152.513 -28.569672 172.8696 -6.4597039 3.6538179
22470000000 -10.27278 72.347275 14.973554 151.93341 -28.600016 172.17833 -6.4547539 3.8873394
22480000000 -10.064062 71.457863 14.938998 151.34584 -28.607641 171.81784 -6.4546366 4.1870842
22490000000 -9.8469038 70.61808 14.904083 150.76707 -28.651121 170.94424 -6.4525533 4.4357901
22500000000 -9.6426363 69.757324 14.870981 150.18341 -28.651669 170.0993 -6.4489627 4.5638313
22510000000 -9.4344549 68.930595 14.834781 149.59666 -28.710939 169.48903 -6.4413643 4.8252583
22520000000 -9.2366953 68.119034 14.800904 149.00459 -28.767242 169.09683 -6.4259467 4.9288421
22530000000 -9.0444622 67.361984 14.767046 148.42203 -28.780209 168.39069 -6.4178391 5.168139
22540000000 -8.8697157 66.602432 14.734064 147.83466 -28.815235 168.16299 -6.4149523 5.3371429
22550000000 -8.7039728 65.946053 14.700428 147.28062 -28.819206 167.91309 -6.4070721 5.4290018
22560000000 -8.5553036 65.272072 14.669865 146.73134 -28.843866 166.74298 -6.3963919 5.7198353
22570000000 -8.4070797 64.641151 14.633029 146.18561 -28.872862 166.15532 -6.3992901 5.9147363
22580000000 -8.2522459 63.928993 14.596758 145.62563 -28.914951 165.65489 -6.3799448 6.0377789
22590000000 -8.091157 63.115646 14.555962 145.0594 -28.908499 164.69124 -6.3597994 6.2385387
22600000000 -7.9269552 62.295486 14.511736 144.47562 -28.995758 164.54251 -6.3467994 6.5375853
22610000000 -7.7622313 61.539043 14.470927 143.88951 -29.029968 163.74931 -6.3264179 6.5962944
22620000000 -7.6186895 60.766747 14.429778 143.3111 -28.979023 163.49385 -6.3103395 6.8222227
22630000000 -7.4832501 60.102844 14.392941 142.78429 -29.117498 162.87444 -6.3077722 7.0179982
22640000000 -7.3606334 59.529785 14.359478 142.27394 -29.145363 162.30464 -6.2924485 7.1736741
22650000000 -7.2455912 58.98436 14.327766 141.76927 -29.125002 161.86894 -6.286612 7.3456593
22660000000 -7.1277261 58.445889 14.292072 141.27472 -29.158997 161.30664 -6.2677326 7.5717292
22670000000 -7.0075026 57.862057 14.252624 140.74039 -29.198635 160.48192 -6.2758551 7.7722712
22680000000 -6.8789797 57.16861 14.210546 140.20673 -29.241711 160.00061 -6.2625518 7.9995699
22690000000 -6.7552629 56.464493 14.163122 139.62881 -29.280346 159.38402 -6.2625179 8.2589779
22700000000 -6.6290402 55.731228 14.118417 139.07782 -29.341244 158.79945 -6.26404 8.3158169
22710000000 -6.5080357 55.080544 14.073097 138.54459 -29.370426 158.33086 -6.2586846 8.422514
22720000000 -6.3991222 54.407158 14.031384 138.00911 -29.418507 157.53885 -6.2489228 8.5216751
22730000000 -6.2848158 53.800159 13.990755 137.5011 -29.45186 157.44597 -6.2504163 8.6050615
22740000000 -6.1791477 53.230568 13.951045 136.97534 -29.512045 156.77702 -6.2480555 8.660861
22750000000 -6.0744338 52.704304 13.910295 136.47299 -29.522427 156.45795 -6.2450075 8.7464533
22760000000 -5.9785337 52.205193 13.86929 135.98801 -29.537712 155.81703 -6.2363095 8.8516846
22770000000 -5.8845882 51.701221 13.825147 135.48361 -29.648312 155.00182 -6.2266188 8.8862753
22780000000 -5.7944765 51.172569 13.780559 134.989 -29.643322 154.4549 -6.2097502 8.9973516
22790000000 -5.7048926 50.644955 13.736565 134.51561 -29.679609 154.05473 -6.2013192 9.1857367
22800000000 -5.6208568 50.094666 13.694124 134.01874 -29.717333 153.68831 -6.1940775 9.2137079
22810000000 -5.5405374 49.53355 13.650152 133.52275 -29.767416 152.90613 -6.1938891 9.3783121
22820000000 -5.451848 48.957565 13.604656 133.00267 -29.779419 152.21185 -6.1762128 9.4797058
22830000000 -5.3685818 48.352139 13.558595 132.50436 -29.832636 152.00163 -6.1717329 9.5625849
22840000000 -5.2877536 47.778934 13.513365 132.02228 -29.8484 151.39153 -6.1714048 9.7215309
22850000000 -5.2089872 47.239891 13.467581 131.53888 -29.870081 151.15944 -6.1583462 9.7515392
22860000000 -5.1360178 46.763699 13.426765 131.07359 -29.962364 150.21593 -6.1516666 9.8068962
22870000000 -5.0578737 46.277363 13.384081 130.64038 -29.948147 149.93428 -6.1581573 9.9522619
22880000000 -4.9829478 45.765648 13.346192 130.19991 -29.999392 149.24957 -6.1436014 10.046865
22890000000 -4.912066 45.307854 13.303804 129.72658 -30.010679 149.19708 -6.1421614 10.126491
22900000000 -4.845459 44.865746 13.258834 129.26131 -30.080463 148.271 -6.1340933 10.227612
22910000000 -4.7819142 44.366089 13.216874 128.78876 -30.1035 147.94501 -6.1346617 10.286239
22920000000 -4.7193599 43.847397 13.17 128.33066 -30.16655 147.6813 -6.1395965 10.411918
22930000000 -4.6615648 43.323513 13.124352 127.86422 -30.243834 146.96199 -6.1338077 10.461052
22940000000 -4.6021662 42.810741 13.078232 127.41644 -30.287905 146.82187 -6.1504292 10.491114
22950000000 -4.5427809 42.277405 13.034497 126.96175 -30.287447 146.00812 -6.1444697 10.633089
22960000000 -4.4805408 41.778229 12.985156 126.51694 -30.307928 145.82906 -6.1647801 10.685425
22970000000 -4.4140215 41.27338 12.939347 126.06705 -30.398687 144.98215 -6.1556406 10.689587
22980000000 -4.3496795 40.755047 12.897231 125.63593 -30.457478 144.84174 -6.1578865 10.791138
22990000000 -4.2881083 40.328545 12.853027 125.1958 -30.409552 144.11501 -6.1736288 10.713456
23000000000 -4.2322884 39.919422 12.812212 124.76252 -30.480328 144.15034 -6.1664848 10.768725
23010000000 -4.1835303 39.547028 12.771031 124.33379 -30.52401 143.53627 -6.1521211 10.776775
23020000000 -4.1356678 39.108627 12.724101 123.90247 -30.527842 142.99504 -6.1483231 10.752604
23030000000 -4.0910869 38.661236 12.677015 123.44517 -30.610207 142.69589 -6.1442947 10.821898
23040000000 -4.0457883 38.195305 12.630128 123.02364 -30.645018 141.78545 -6.1456366 10.851049
23050000000 -4.005332 37.707756 12.580641 122.59668 -30.711721 141.78151 -6.145927 10.987993
23060000000 -3.9608145 37.218117 12.536773 122.17911 -30.729576 140.95894 -6.1488633 11.02374
23070000000 -3.9197428 36.702168 12.491389 121.74776 -30.739597 140.52689 -6.1403918 11.115231
23080000000 -3.8754878 36.236958 12.449033 121.33791 -30.838593 140.37486 -6.156333 11.103363
23090000000 -3.8273268 35.735905 12.406117 120.93591 -30.887341 140.12032 -6.1643653 11.232619
23100000000 -3.7756069 35.265232 12.363507 120.50793 -30.936531 139.43829 -6.1757159 11.349038
23110000000 -3.7299447 34.800735 12.317986 120.09708 -30.931828 139.129 -6.1819396 11.351511
23120000000 -3.6788557 34.367378 12.271048 119.68208 -30.956947 138.5367 -6.2065458 11.336458
23130000000 -3.6317639 33.94833 12.22227 119.27444 -30.977322 138.10333 -6.2166057 11.381112
23140000000 -3.5839379 33.5728 12.176629 118.88049 -31.052376 137.49814 -6.2286968 11.311603
23150000000 -3.5456452 33.190292 12.13375 118.48797 -31.146439 137.04222 -6.2256527 11.402975
23160000000 -3.5092981 32.856258 12.090493 118.10677 -31.140554 136.70438 -6.2352099 11.407235
23170000000 -3.4844584 32.512707 12.052632 117.72603 -31.149103 136.42123 -6.2424712 11.407182
23180000000 -3.4566736 32.162926 12.011921 117.33636 -31.183365 136.39285 -6.2482009 11.451487
23190000000 -3.4330902 31.780748 11.976115 116.95575 -31.23106 135.44618 -6.2519503 11.424734
23200000000 -3.4044657 31.368017 11.932796 116.57384 -31.307035 135.00568 -6.2671447 11.383143
23210000000 -3.3763573 30.935843 11.889392 116.17809 -31.333492 134.61935 -6.2948236 11.477703
23220000000 -3.3440571 30.495771 11.844642 115.77168 -31.302929 134.04268 -6.3043089 11.534369
23230000000 -3.3125143 30.019794 11.79704 115.39259 -31.407068 133.52692 -6.3141384 11.560694
23240000000 -3.2769279 29.569283 11.751559 115.0125 -31.409504 133.8116 -6.3343291 11.503694
23250000000 -3.2422051 29.135422 11.707676 114.6405 -31.508583 133.0074 -6.3497915 11.53835
23260000000 -3.2085052 28.741976 11.66779 114.24651 -31.527773 132.57404 -6.3594027 11.554232
23270000000 -3.1797619 28.366827 11.626716 113.86649 -31.556326 132.0312 -6.3854256 11.560764
23280000000 -3.1535959 28.026773 11.587155 113.50056 -31.548342 131.92996 -6.3876219 11.585955
23290000000 -3.1259995 27.686424 11.55002 113.13307 -31.599371 130.92577 -6.3995433 11.54971
23300000000 -3.1038067 27.371464 11.511639 112.7701 -31.617191 130.6268 -6.4109387 11.543778
23310000000 -3.0817237 27.003277 11.470094 112.3944 -31.682592 130.58975 -6.4312968 11.504537
23320000000 -3.0566363 26.576479 11.426572 112.04211 -31.752048 129.97336 -6.4532714 11.577477
23330000000 -3.0320926 26.154749 11.376773 111.67599 -31.803246 129.61497 -6.4596581 11.554191
23340000000 -3.0003452 25.692129 11.333277 111.29896 -31.755604 128.862 -6.4775286 11.612435
23350000000 -2.9726243 25.2847 11.287383 110.93279 -31.843771 128.69936 -6.5059466 11.591907
23360000000 -2.9450433 24.9195 11.249297 110.57791 -31.880648 128.74022 -6.5050712 11.585096
23370000000 -2.9189823 24.586792 11.210486 110.21098 -31.922638 128.36772 -6.5391951 11.555914
23380000000 -2.8966887 24.280741 11.172255 109.88181 -31.9778 127.50074 -6.5566592 11.557742
23390000000 -2.8759832 24.017912 11.140567 109.51544 -31.957197 127.0042 -6.5737152 11.594529
23400000000 -2.8586938 23.727825 11.104137 109.19216 -32.101105 126.88136 -6.6065927 11.584088
23410000000 -2.8436725 23.399076 11.066674 108.83792 -32.051403 126.82435 -6.6171846 11.606043
23420000000 -2.8284974 23.041065 11.021633 108.48566 -32.054581 125.9352 -6.6439095 11.591312
23430000000 -2.8137653 22.652405 10.98137 108.14176 -32.187725 125.66289 -6.6566181 11.651614
23440000000 -2.7979374 22.199251 10.936997 107.78419 -32.229359 125.52146 -6.6780267 11.650127
23450000000 -2.7821653 21.76581 10.896441 107.43502 -32.179745 124.86845 -6.7068434 11.627333
23460000000 -2.7640045 21.368185 10.854063 107.0631 -32.333534 124.75838 -6.7258224 11.661988
23470000000 -2.7417202 20.994764 10.819562 106.71795 -32.30537 124.41889 -6.7439771 11.623537
23480000000 -2.7179205 20.633711 10.778964 106.3758 -32.303608 123.95367 -6.7705317 11.598532
23490000000 -2.6981847 20.272869 10.741261 106.03482 -32.351437 123.5527 -6.8031421 11.580443
23500000000 -2.6714633 19.940739 10.702179 105.7016 -32.405399 123.52081 -6.8160195 11.57072
23510000000 -2.6511285 19.624329 10.663104 105.37201 -32.420918 122.72533 -6.8372741 11.512469
23520000000 -2.6333032 19.325811 10.623848 105.05853 -32.496231 123.0554 -6.847785 11.660205
23530000000 -2.6195307 19.050467 10.591384 104.72585 -32.436432 122.60539 -6.8663039 11.762981
23540000000 -2.605845 18.718641 10.552589 104.38317 -32.519875 121.36499 -6.8841543 11.692101
23550000000 -2.5951138 18.439041 10.516706 104.06294 -32.604763 121.83164 -6.9193206 11.748323
23560000000 -2.5884643 18.081583 10.480337 103.70652 -32.596664 121.24252 -6.9632425 11.834174
23570000000 -2.5793574 17.738638 10.443601 103.36879 -32.609043 120.70583 -6.9991708 11.862209
23580000000 -2.5671067 17.380604 10.40473 103.03104 -32.661575 120.45509 -7.016767 11.859749
23590000000 -2.556869 16.99024 10.367366 102.69125 -32.717606 119.67348 -7.0659556 11.770198
23600000000 -2.544831 16.616415 10.328312 102.36319 -32.754646 119.65707 -7.1071463 11.799596
23610000000 -2.533705 16.276731 10.294463 102.03062 -32.807354 119.05693 -7.135303 11.708301
23620000000 -2.5152991 15.915562 10.260333 101.70222 -32.841724 119.07874 -7.1530938 11.704791
23630000000 -2.4992442 15.606323 10.227121 101.3933 -32.854137 118.64549 -7.1868095 11.512389
23640000000 -2.4865444 15.286122 10.193665 101.05304 -32.78883 118.13606 -7.2152638 11.671873
23650000000 -2.46943 14.972738 10.159139 100.73026 -32.932915 117.56267 -7.2264872 11.572377
23660000000 -2.4587762 14.637925 10.119958 100.37398 -32.949623 117.34373 -7.2743754 11.48266
23670000000 -2.4478061 14.309092 10.085059 100.0505 -32.955761 117.2704 -7.2911139 11.525065
23680000000 -2.4379971 13.974654 10.043153 99.711151 -33.042248 116.45784 -7.3138037 11.553907
23690000000 -2.4280961 13.64557 10.008462 99.368103 -32.938068 117.19651 -7.3648143 11.519486
23700000000 -2.4201865 13.307646 9.971242 99.053062 -33.105556 116.05605 -7.3863673 11.496889
23710000000 -2.4116452 12.968184 9.9363384 98.732384 -33.145653 115.59252 -7.4307513 11.67182
23720000000 -2.4028828 12.646976 9.9038506 98.416962 -33.265694 115.68405 -7.4527082 11.555213
23730000000 -2.3914628 12.303274 9.8721905 98.077881 -33.182816 114.75079 -7.497067 11.592248
23740000000 -2.3821454 11.981483 9.8358011 97.745605 -33.221035 114.93808 -7.5424771 11.545367
23750000000 -2.3717844 11.667194 9.8048992 97.440887 -33.282665 114.02942 -7.5653133 11.540886
23760000000 -2.3619175 11.355378 9.7697392 97.133537 -33.234035 113.70947 -7.5992284 11.688091
23770000000 -2.3485222 11.053581 9.7371922 96.817276 -33.343048 113.91756 -7.6329942 11.477221
23780000000 -2.341727 10.72136 9.7000027 96.484329 -33.366734 113.20405 -7.6767187 11.468594
23790000000 -2.3320391 10.409625 9.666481 96.176849 -33.350929 113.27252 -7.7146931 11.423825
23800000000 -2.3257728 10.072476 9.6346664 95.842865 -33.41531 112.83543 -7.7460527 11.435559
23810000000 -2.3154936 9.7720604 9.6007586 95.516525 -33.438332 112.48148 -7.7775693 11.480529
23820000000 -2.3090854 9.4538651 9.5714588 95.210091 -33.533985 111.58793 -7.8077207 11.453204
23830000000 -2.3036456 9.1454439 9.5386209 94.886459 -33.51358 111.80997 -7.8526931 11.437098
23840000000 -2.2977359 8.8165054 9.5058031 94.555443 -33.543621 110.54803 -7.8705788 11.491267
23850000000 -2.2901692 8.4875965 9.474514 94.248795 -33.558449 110.73227 -7.9214058 11.389712
23860000000 -2.2834339 8.1552525 9.4379311 93.918755 -33.610435 110.81526 -7.9506083 11.368515
23870000000 -2.2727838 7.7923322 9.4050665 93.592522 -33.566101 110.75601 -7.992753 11.379584
23880000000 -2.2670412 7.4564896 9.3681545 93.282234 -33.733089 109.66323 -8.0047531 11.440635
23890000000 -2.2586381 7.1215196 9.3335829 92.968216 -33.603874 109.69067 -8.0550718 11.419761
23900000000 -2.2497494 6.7989435 9.3031273 92.655273 -33.698505 109.13038 -8.1027632 11.463628
23910000000 -2.2419 6.5022454 9.2726259 92.334785 -33.709026 108.85717 -8.1326704 11.535407
23920000000 -2.2332985 6.1994109 9.2459631 91.991768 -33.769253 108.96899 -8.1728106 11.574729
23930000000 -2.2270966 5.9268904 9.2205172 91.698318 -33.849377 108.61774 -8.2202806 11.637068
23940000000 -2.2222998 5.6196074 9.1873665 91.371078 -33.894047 107.95202 -8.2680635 11.62305
23950000000 -2.2176893 5.3300219 9.1560154 91.046188 -33.824539 107.62772 -8.3024855 11.685799
23960000000 -2.2114434 5.0022135 9.1242523 90.74482 -33.900906 107.22658 -8.3556414 11.628924
23970000000 -2.205688 4.6522255 9.0927839 90.435768 -33.932911 107.43427 -8.4069824 11.615503
23980000000 -2.2004917 4.3235297 9.058732 90.113335 -33.920731 106.37694 -8.456193 11.641892
23990000000 -2.193002 3.9857481 9.0285988 89.774124 -33.994572 106.31444 -8.5028811 11.525476
24000000000 -2.1875939 3.6594822 8.9995766 89.455795 -34.031593 106.0088 -8.5566483 11.508835
24010000000 -2.1787941 3.3500829 8.9722004 89.126427 -34.045483 105.43485 -8.5899124 11.464354
24020000000 -2.1719828 3.0410922 8.9393702 88.793457 -34.171188 104.81938 -8.6233072 11.36417
24030000000 -2.1688747 2.7394228 8.9108839 88.477135 -34.072643 105.13162 -8.6581707 11.357436
24040000000 -2.1626668 2.4314837 8.8799582 88.16761 -34.106453 104.83315 -8.7045221 11.451173
24050000000 -2.1571887 2.1156628 8.8512259 87.841431 -34.190865 103.65987 -8.7401237 11.330228
24060000000 -2.1523166 1.8216 8.8206444 87.530518 -34.205341 103.73626 -8.786684 11.364113
24070000000 -2.1467674 1.5005399 8.7905245 87.220421 -34.206192 103.26145 -8.8391657 11.400039
24080000000 -2.1438355 1.1772478 8.759635 86.878815 -34.312157 103.45143 -8.8851233 11.477518
24090000000 -2.1403866 0.85711402 8.7310448 86.562096 -34.229111 103.0563 -8.9244232 11.364161
24100000000 -2.1369095 0.54106867 8.7007608 86.227432 -34.325085 102.40303 -8.9841452 11.299241
24110000000 -2.1354752 0.22219446 8.6707458 85.904259 -34.271088 101.84438 -9.0110903 11.312919
24120000000 -2.131048 -0.099005252 8.6398125 85.577576 -34.408691 101.85369 -9.0653067 11.151703
24130000000 -2.1298516 -0.42802241 8.6092281 85.277153 -34.451668 101.55195 -9.1111994 11.239005
24140000000 -2.1292019 -0.75313485 8.5814419 84.971977 -34.436466 101.04626 -9.1278334 11.169655
24150000000 -2.1232777 -1.0714424 8.5510483 84.675705 -34.558071 100.99885 -9.1936741 11.136093
24160000000 -2.1178052 -1.4120295 8.5234013 84.332191 -34.517887 100.39307 -9.2200356 11.175936
24170000000 -2.1125193 -1.7580808 8.4926186 84.010262 -34.563 99.999817 -9.2544527 11.255833
24180000000 -2.1032798 -2.0870912 8.461729 83.698532 -34.525135 99.703079 -9.3124285 11.230497
24190000000 -2.0949335 -2.4167445 8.432682 83.37677 -34.599644 99.734085 -9.3533545 11.368367
24200000000 -2.0850937 -2.7019548 8.4021025 83.052544 -34.617687 99.437904 -9.3916159 11.404554
24210000000 -2.0737281 -3.0033865 8.37257 82.737785 -34.565449 98.670326 -9.4345913 11.357178
24220000000 -2.0676892 -3.2699959 8.3459959 82.410042 -34.660236 98.43721 -9.5132132 11.428202
24230000000 -2.0625319 -3.5577664 8.3186932 82.108475 -34.67696 98.028679 -9.543849 11.351657
24240000000 -2.0613937 -3.843158 8.2880154 81.779724 -34.75745 98.41465 -9.625493 11.442716
24250000000 -2.0586739 -4.1249261 8.2599993 81.481201 -34.724979 97.759552 -9.6277981 11.450423
24260000000 -2.0577602 -4.3984671 8.2319603 81.16555 -34.734879 97.291245 -9.6776981 11.311011
24270000000 -2.0601454 -4.7099457 8.2057905 80.857986 -34.789196 97.110779 -9.7188778 11.467546
24280000000 -2.0611384 -5.0001569 8.1781816 80.517532 -34.844742 96.254601 -9.7762566 11.510552
24290000000 -2.0572095 -5.3207831 8.1488457 80.210785 -34.898102 96.419121 -9.8165283 11.49192
24300000000 -2.0586851 -5.6595035 8.1224918 79.903328 -34.866684 95.899635 -9.8563643 11.544667
24310000000 -2.0543711 -5.9900441 8.0915194 79.578094 -34.906857 95.852135 -9.920742 11.600057
24320000000 -2.0495982 -6.313942 8.0651188 79.249428 -34.917294 95.805252 -9.9792624 11.580708
24330000000 -2.0442533 -6.629272 8.0350027 78.942993 -35.028439 95.529144 -10.03242 11.602599
24340000000 -2.0411165 -6.9403348 8.0093441 78.616142 -34.978127 94.507332 -10.092472 11.585126
24350000000 -2.0330143 -7.262187 7.9868855 78.311699 -35.039223 94.514465 -10.134112 11.624075
24360000000 -2.0316396 -7.5495019 7.958478 77.967751 -35.070824 93.730812 -10.201316 11.505792
24370000000 -2.0257187 -7.8738098 7.9303603 77.653969 -35.058193 93.818993 -10.254962 11.380721
24380000000 -2.0248096 -8.172554 7.9021201 77.336044 -35.048756 93.278618 -10.30484 11.390603
24390000000 -2.0194876 -8.5052948 7.8732877 77.002235 -35.08075 93.299599 -10.355152 11.369226
24400000000 -2.0187979 -8.8420801 7.8427663 76.682968 -35.196152 92.74279 -10.404628 11.401104
24410000000 -2.0137544 -9.1801233 7.8123708 76.359108 -35.130913 92.001587 -10.422566 11.435843
24420000000 -2.0089591 -9.5034275 7.7815523 76.032036 -35.178989 91.974625 -10.466916 11.371515
24430000000 -2.0016437 -9.8296528 7.7574544 75.706223 -35.267784 91.437691 -10.508211 11.371877
24440000000 -1.9918965 -10.139977 7.72892 75.409256 -35.350018 91.295998 -10.553241 11.434373
24450000000 -1.9869059 -10.415688 7.7013564 75.110611 -35.302193 90.983521 -10.607294 11.558353
24460000000 -1.9762363 -10.698385 7.6781411 74.784775 -35.3703 90.71209 -10.652021 11.448676
24470000000 -1.9689409 -10.963155 7.6490116 74.463539 -35.275177 90.351952 -10.683662 11.466569
24480000000 -1.9625946 -11.246271 7.6219711 74.133881 -35.34774 89.725197 -10.753378 11.443516
24490000000 -1.9598496 -11.514031 7.5944705 73.814064 -35.438595 89.82869 -10.803398 11.443983
24500000000 -1.955577 -11.783992 7.5659208 73.485329 -35.496071 89.269249 -10.835309 11.49337
24510000000 -1.9537967 -12.088563 7.5368438 73.18045 -35.460201 89.497925 -10.89488 11.596834
24520000000 -1.9557577 -12.385934 7.5088029 72.855843 -35.462749 89.239891 -10.934879 11.589324
24530000000 -1.9569507 -12.6965 7.4807224 72.557579 -35.471283 88.733665 -10.981675 11.578572
24540000000 -1.954579 -12.996776 7.4546332 72.235031 -35.562325 88.084419 -11.049155 11.679737
24550000000 -1.9550687 -13.306611 7.4281263 71.905258 -35.522999 87.332939 -11.092898 11.655121
24560000000 -1.9515371 -13.626836 7.4007916 71.61705 -35.560535 87.770348 -11.138508 11.80138
24570000000 -1.9503976 -13.940742 7.3765669 71.296867 -35.646442 87.255173 -11.193154 11.773789
24580000000 -1.9454116 -14.23735 7.3498335 70.962051 -35.68 86.804977 -11.227375 11.784301
24590000000 -1.9368132 -14.55651 7.3175244 70.639824 -35.665161 87.212051 -11.283727 11.786458
24600000000 -1.9297354 -14.853451 7.2921734 70.328835 -35.829796 86.056053 -11.362926 11.764485
24610000000 -1.9229633 -15.171196 7.263433 69.992599 -35.695465 85.977753 -11.39729 11.711484
24620000000 -1.9201695 -15.492961 7.2368922 69.671875 -35.746513 85.497711 -11.476171 11.762268
24630000000 -1.9147769 -15.780317 7.2080398 69.350174 -35.778385 85.227303 -11.523908 11.723075
24640000000 -1.9117435 -16.090014 7.1826224 69.017159 -35.787708 86.065971 -11.549841 11.770215
24650000000 -1.9095864 -16.393137 7.1567073 68.703217 -35.921211 84.488319 -11.606858 11.699615
24660000000 -1.9049782 -16.681625 7.1282253 68.377724 -35.851665 84.217575 -11.649559 11.724851
24670000000 -1.9002403 -16.993773 7.099957 68.049698 -35.848179 84.165871 -11.676968 11.570414
24680000000 -1.8939536 -17.304205 7.0718389 67.731544 -35.948143 84.033966 -11.745086 11.810622
24690000000 -1.8884172 -17.611319 7.0461559 67.422768 -35.986828 83.306221 -11.771677 11.812171
24700000000 -1.8820462 -17.917013 7.0153432 67.091774 -35.984173 82.807426 -11.800396 11.982335
24710000000 -1.8725303 -18.202953 6.9861794 66.782646 -36.062222 82.355598 -11.87967 11.854099
24720000000 -1.8638396 -18.46529 6.9593201 66.458046 -36.034718 82.527107 -11.929052 12.078107
24730000000 -1.8574696 -18.747255 6.933588 66.11969 -36.121567 82.566383 -11.972322 11.962771
24740000000 -1.8511446 -18.99098 6.9099588 65.812668 -36.08696 81.498627 -12.032185 11.935895
24750000000 -1.8497434 -19.245699 6.8835802 65.47374 -36.091206 81.378357 -12.089473 11.851468
24760000000 -1.8491722 -19.514925 6.859426 65.157913 -36.142509 81.738838 -12.14259 11.844871
24770000000 -1.8491485 -19.791943 6.832984 64.840225 -36.139263 80.508865 -12.180614 11.728924
24780000000 -1.8466421 -20.105188 6.8059163 64.530579 -36.263901 80.91227 -12.214174 11.722286
24790000000 -1.845997 -20.429674 6.7781606 64.198006 -36.219463 80.08889 -12.264658 11.824068
24800000000 -1.842049 -20.776703 6.7467027 63.883862 -36.25148 80.562424 -12.303307 11.799139
24810000000 -1.8380978 -21.102852 6.715672 63.558857 -36.285961 79.705872 -12.309892 11.776856
24820000000 -1.8259797 -21.438841 6.6902413 63.22773 -36.289494 78.923973 -12.362043 11.854415
24830000000 -1.8159778 -21.765537 6.656424 62.91518 -36.314236 78.649284 -12.388392 11.669696
24840000000 -1.803237 -22.045597 6.6316414 62.596142 -36.477333 78.425011 -12.426838 11.773705
24850000000 -1.7910212 -22.311182 6.6030536 62.263943 -36.362759 78.885971 -12.452889 11.796057
24860000000 -1.7797472 -22.564495 6.5771971 61.95985 -36.420055 78.567467 -12.49507 11.86065
24870000000 -1.7712156 -22.792385 6.5503268 61.632725 -36.516674 77.590881 -12.546928 11.836943
24880000000 -1.7650648 -23.041553 6.5204158 61.312675 -36.503399 77.758972 -12.604762 12.056417
24890000000 -1.7597047 -23.289495 6.4939046 60.992107 -36.460236 77.409668 -12.628702 12.045595
24900000000 -1.7562675 -23.529547 6.4663558 60.695324 -36.462971 77.478989 -12.645221 12.300092
24910000000 -1.7550533 -23.797285 6.4419713 60.36515 -36.496475 76.564148 -12.706123 12.17365
24920000000 -1.7504284 -24.053135 6.4133363 60.078987 -36.541656 76.588486 -12.762053 12.224615
24930000000 -1.7488875 -24.340197 6.3890443 59.745529 -36.772213 76.10247 -12.797313 12.328367
24940000000 -1.7454504 -24.614651 6.360033 59.447174 -36.593094 75.219505 -12.839972 12.356605
24950000000 -1.741888 -24.898821 6.3340063 59.123581 -36.699539 75.50399 -12.900435 12.463902
24960000000 -1.7342108 -25.187027 6.3044791 58.787262 -36.714237 75.202492 -12.968047 12.229424
24970000000 -1.7265465 -25.464848 6.2783422 58.469917 -36.74279 75.506012 -13.026846 12.118949
24980000000 -1.7179176 -25.755997 6.2479973 58.186382 -36.733131 73.962372 -13.053289 12.05207
24990000000 -1.7104005 -26.032604 6.2267261 57.850063 -36.736279 73.71096 -13.090117 12.021845
25000000000 -1.6985936 -26.301159 6.1957316 57.493439 -36.782986 74.04113 -13.12931 11.86724
25010000000 -1.6919968 -26.556345 6.1675186 57.188816 -36.785961 74.256966 -13.152003 11.930439
25020000000 -1.6827275 -26.82585 6.1421595 56.87262 -36.829906 73.335419 -13.168265 11.751656
25030000000 -1.6745983 -27.081997 6.1117959 56.54211 -36.967514 72.586723 -13.200318 11.692921
25040000000 -1.6668708 -27.339685 6.0845752 56.216156 -36.954712 72.835068 -13.205573 11.668374
25050000000 -1.6574273 -27.591696 6.0565829 55.916126 -36.941875 71.291763 -13.20907 11.743404
25060000000 -1.6538334 -27.843576 6.0278249 55.60104 -37.063805 72.1548 -13.228308 11.809565
25070000000 -1.6455026 -28.09672 5.9981833 55.287483 -36.922005 72.007133 -13.248371 11.729114
25080000000 -1.6365815 -28.325584 5.9737172 54.964417 -37.040936 71.653252 -13.281896 11.976526
25090000000 -1.6299376 -28.57209 5.9454927 54.648151 -37.009148 71.374687 -13.328935 12.109169
25100000000 -1.6234488 -28.814882 5.9211664 54.353436 -37.048855 71.050346 -13.351115 12.065492
25110000000 -1.6150565 -29.065434 5.8898096 54.027084 -37.13266 69.622253 -13.411098 12.258172
25120000000 -1.6100061 -29.294043 5.8685951 53.700451 -37.05566 70.039886 -13.429613 12.403708
25130000000 -1.6023406 -29.532604 5.8377681 53.371853 -37.140751 69.556038 -13.477154 12.157796
25140000000 -1.5972903 -29.786295 5.8114824 53.043713 -37.109741 69.146294 -13.523374 12.129477
25150000000 -1.5908761 -30.01959 5.7864828 52.750423 -37.281685 69.537392 -13.576169 12.292097
25160000000 -1.5836291 -30.276569 5.7615533 52.429321 -37.210503 68.794426 -13.60314 12.003138
25170000000 -1.5785217 -30.542711 5.7327571 52.110497 -37.208183 68.762596 -13.617325 12.070381
25180000000 -1.5709163 -30.78422 5.704638 51.810505 -37.218716 68.430672 -13.624115 11.8527
25190000000 -1.563428 -31.055101 5.6781964 51.48687 -37.225178 68.150414 -13.681531 11.950735
25200000000 -1.5534189 -31.323385 5.6489258 51.176727 -37.401234 68.109299 -13.673959 11.930095
25210000000 -1.5436147 -31.568571 5.6204591 50.832985 -37.336792 67.853195 -13.690953 11.801803
25220000000 -1.5332497 -31.827353 5.5907087 50.538204 -37.333797 66.733185 -13.700035 11.462097
25230000000 -1.521371 -32.054394 5.558866 50.219402 -37.351994 66.042854 -13.706567 11.497834
25240000000 -1.5106936 -32.261543 5.5343375 49.905579 -37.476337 66.871452 -13.737019 11.39146
25250000000 -1.4994203 -32.465878 5.5043359 49.614132 -37.498966 66.50386 -13.722744 11.396148
25260000000 -1.4886189 -32.66 5.4759517 49.291706 -37.508915 65.982628 -13.733942 11.443843
25270000000 -1.4794143 -32.861389 5.451664 48.98365 -37.507832 65.988632 -13.724911 11.466131
25280000000 -1.4727132 -33.040134 5.4272776 48.688282 -37.558086 65.81678 -13.727234 11.695177
25290000000 -1.4674331 -33.236019 5.4009743 48.358795 -37.553474 65.1325 -13.760366 11.591067
25300000000 -1.4629705 -33.434132 5.3699641 48.033363 -37.663704 64.490387 -13.801703 11.659815
25310000000 -1.4584295 -33.629784 5.3453126 47.73082 -37.728481 64.272568 -13.756907 11.838369
25320000000 -1.4522694 -33.840145 5.3168321 47.421078 -37.681561 64.197723 -13.794515 11.791265
25330000000 -1.4505537 -34.073387 5.2881241 47.09351 -37.623417 64.172066 -13.807269 12.080178
25340000000 -1.4419042 -34.321072 5.2643065 46.795265 -37.54295 63.808743 -13.826252 11.9021
25350000000 -1.4373635 -34.558704 5.2351766 46.474232 -37.66943 63.054947 -13.841058 11.826147
25360000000 -1.4322397 -34.793835 5.2022176 46.174591 -37.684689 63.078266 -13.89528 11.702533
25370000000 -1.4221404 -35.02747 5.176897 45.85952 -37.963814 62.601101 -13.890252 11.505727
25380000000 -1.4125597 -35.257225 5.1521354 45.53355 -37.824314 62.639809 -13.87707 11.821764
25390000000 -1.4006952 -35.493538 5.1254683 45.214458 -37.841095 62.42149 -13.88475 11.506639
25400000000 -1.3882858 -35.699512 5.0939217 44.924316 -37.942799 62.17503 -13.918593 11.598151
25410000000 -1.3763334 -35.885651 5.0660901 44.601547 -37.889233 60.741474 -13.903513 11.48627
25420000000 -1.3640162 -36.096779 5.0355945 44.301975 -37.729652 61.924038 -13.885106 11.347051
25430000000 -1.3524017 -36.282536 5.0075893 43.973557 -37.870632 60.84642 -13.892763 11.336709
25440000000 -1.3412858 -36.439491 4.9825559 43.678741 -37.915401 61.030159 -13.860991 11.590031
25450000000 -1.3321656 -36.624279 4.9538665 43.389523 -37.990723 60.573105 -13.893299 11.616336
25460000000 -1.3243854 -36.765457 4.9249363 43.077618 -38.014641 60.166283 -13.893266 11.718433
25470000000 -1.3169346 -36.945679 4.9007068 42.749866 -38.056553 59.824173 -13.914592 11.574137
25480000000 -1.3133937 -37.121571 4.8664684 42.441929 -37.955612 60.111683 -13.930451 11.643235
25490000000 -1.3092922 -37.294762 4.8455286 42.137299 -38.137184 59.563068 -13.935829 11.492474
25500000000 -1.3045398 -37.471424 4.8177214 41.83551 -38.188492 59.106827 -13.930037 11.453352
25510000000 -1.2993561 -37.671642 4.7910924 41.531723 -38.262012 59.19363 -13.947232 11.625772
25520000000 -1.2922591 -37.869827 4.7617316 41.213627 -38.194664 59.568295 -13.908009 11.297945
25530000000 -1.2852452 -38.081112 4.7342305 40.921928 -38.187271 58.902802 -13.901462 11.399834
25540000000 -1.2762682 -38.269707 4.7068868 40.594105 -38.138832 59.326279 -13.903 11.144293
25550000000 -1.2640338 -38.484875 4.6774569 40.307976 -38.360065 57.019844 -13.893598 11.071198
25560000000 -1.255142 -38.674736 4.6503625 39.993095 -38.332443 58.45166 -13.875715 11.078594
25570000000 -1.2428029 -38.836086 4.621511 39.658806 -38.293373 56.990932 -13.85443 11.223055
25580000000 -1.2349883 -39.021015 4.5952973 39.347786 -38.361309 57.25811 -13.830293 11.04737
25590000000 -1.2247553 -39.182812 4.5678468 39.059811 -38.319458 56.161659 -13.83806 11.032488
25600000000 -1.2177131 -39.370472 4.5370364 38.730556 -38.333431 56.322861 -13.828341 11.138773
25610000000 -1.209291 -39.543598 4.5082564 38.440701 -38.312023 56.224472 -13.858215 11.249786
25620000000 -1.2001027 -39.71722 4.4826279 38.143608 -38.363186 55.827042 -13.827601 11.104063
25630000000 -1.1897117 -39.874332 4.4518476 37.854301 -38.395439 55.572289 -13.807451 10.98858
25640000000 -1.1788684 -40.025299 4.4271054 37.531033 -38.476467 55.220776 -13.807652 11.139994
25650000000 -1.1695832 -40.162113 4.3942728 37.271404 -38.479237 56.392361 -13.774918 10.856295
25660000000 -1.159796 -40.309528 4.3675132 36.92897 -38.501202 55.044434 -13.80863 10.942624
25670000000 -1.1470397 -40.430218 4.3413301 36.658554 -38.626656 55.325409 -13.78213 10.670562
25680000000 -1.1396781 -40.563442 4.3159528 36.333515 -38.546806 54.333313 -13.743064 10.577535
25690000000 -1.133255 -40.692627 4.2886105 36.068264 -38.528904 53.700542 -13.740135 10.499858
25700000000 -1.1274716 -40.827522 4.2635579 35.73455 -38.534691 53.326527 -13.696921 10.425905
25710000000 -1.1211094 -40.962273 4.2310967 35.42482 -38.61536 53.104404 -13.659924 10.401282
25720000000 -1.1192108 -41.107376 4.2070279 35.082932 -38.718052 54.097576 -13.646933 10.447198
25730000000 -1.1158776 -41.273926 4.1788015 34.799747 -38.675385 53.18309 -13.614221 10.457699
25740000000 -1.1123172 -41.465874 4.1553707 34.499424 -38.724266 52.588448 -13.589661 10.348354
25750000000 -1.1076699 -41.635258 4.1273403 34.188618 -38.646858 52.631458 -13.54148 10.37072
25760000000 -1.0988675 -41.817097 4.0984235 33.887119 -38.84185 52.535801 -13.532907 10.397169
25770000000 -1.0897669 -41.995857 4.0680494 33.576744 -38.700005 52.149918 -13.504629 10.523397
25780000000 -1.0785583 -42.172466 4.0446115 33.310646 -38.957703 51.547314 -13.515333 10.51102
25790000000 -1.0646902 -42.309273 4.0099463 33.02224 -38.85125 51.5485 -13.44067 10.524438
25800000000 -1.0536931 -42.463486 3.9841413 32.691784 -38.795498 51.263916 -13.462502 10.443414
25810000000 -1.0412359 -42.589256 3.9537838 32.419613 -38.917271 50.960484 -13.413599 10.560385
25820000000 -1.0296091 -42.712093 3.9283059 32.063667 -38.879929 50.776001 -13.370833 10.434618
25830000000 -1.0221541 -42.805775 3.8990097 31.780584 -38.853188 50.255783 -13.341636 10.650964
25840000000 -1.0127649 -42.914402 3.8718481 31.474817 -38.97105 49.986668 -13.335774 10.48597
25850000000 -1.0078493 -43.043163 3.8447013 31.150949 -38.978451 50.153885 -13.321786 10.277961
25860000000 -1.0004981 -43.163361 3.8178096 30.875641 -38.850864 49.639984 -13.296226 10.340096
25870000000 -0.99685222 -43.296761 3.7888103 30.542864 -38.965374 49.135483 -13.295874 10.530616
25880000000 -0.99093759 -43.434643 3.7616439 30.266174 -39.212093 49.370331 -13.254022 10.219241
25890000000 -0.98167974 -43.561863 3.7353377 29.95804 -39.079796 49.081867 -13.264259 10.311505
25900000000 -0.97336268 -43.710224 3.7036943 29.684423 -39.067932 49.211899 -13.204599 10.159075
25910000000 -0.96306765 -43.818218 3.6860824 29.384459 -38.967712 47.648785 -13.173874 10.248946
25920000000 -0.94981807 -43.93848 3.6513865 29.0791 -39.174007 48.578045 -13.148168 10.059431
25930000000 -0.94126338 -44.03973 3.6298487 28.787056 -39.179752 48.545372 -13.09867 9.8915405
25940000000 -0.93192333 -44.139313 3.5996544 28.499725 -39.175049 48.120686 -13.079297 9.8765669
25950000000 -0.92173171 -44.23814 3.5674932 28.196894 -39.21249 48.19339 -13.024599 9.7909145
25960000000 -0.9145174 -44.327934 3.5410712 27.889441 -39.156345 46.969444 -12.97887 9.8101978
25970000000 -0.90774918 -44.407955 3.5204606 27.600117 -39.136387 47.704723 -12.950587 9.5362434
25980000000 -0.90381217 -44.518486 3.4878838 27.294077 -39.122066 46.667152 -12.898518 9.7317562
25990000000 -0.89944339 -44.609428 3.4607735 26.995733 -39.259556 46.991241 -12.884711 9.7341509
26000000000 -0.89664376 -44.730289 3.4339678 26.715322 -39.394024 45.362057 -12.831581 9.7118893
26010000000 -0.89262074 -44.855446 3.4039071 26.416349 -39.401535 45.45826 -12.803766 9.7665119
26020000000 -0.88428444 -44.979546 3.3812232 26.118259 -39.212605 45.576672 -12.746296 9.6680536
26030000000 -0.87756068 -45.111183 3.3469133 25.820763 -39.272495 44.807858 -12.722659 9.6907043
26040000000 -0.86795372 -45.22234 3.3215685 25.567097 -39.239277 44.548725 -12.680074 9.6521568
26050000000 -0.8546986 -45.324451 3.2961617 25.23904 -39.420551 43.862877 -12.651664 9.6399183
26060000000 -0.84384602 -45.401741 3.2658486 24.960829 -39.508411 43.508381 -12.62251 9.7542295
26070000000 -0.83220708 -45.478558 3.2425284 24.687252 -39.430901 44.078117 -12.585577 9.5861225
26080000000 -0.82406968 -45.541595 3.2153895 24.366587 -39.371475 44.201664 -12.539613 9.7275162
26090000000 -0.81700724 -45.589706 3.1855292 24.084053 -39.543358 44.356552 -12.49276 9.5080814
26100000000 -0.81152582 -45.672829 3.158251 23.745512 -39.537994 43.560631 -12.454275 9.6497917
26110000000 -0.81065124 -45.737312 3.1295445 23.488617 -39.57962 42.978695 -12.419985 9.5641804
26120000000 -0.80744117 -45.831524 3.1006615 23.159952 -39.438572 43.207302 -12.413044 9.4048634
26130000000 -0.8041625 -45.926666 3.0792499 22.853535 -39.653343 43.288841 -12.347226 9.4409761
26140000000 -0.79833889 -46.014137 3.0522099 22.538176 -39.543587 43.081158 -12.327604 9.3857679
26150000000 -0.79458213 -46.125439 3.0215514 22.285889 -39.606728 42.783653 -12.303163 9.3714132
26160000000 -0.78645033 -46.221931 2.9972446 21.98678 -39.684486 42.881092 -12.282075 9.1438351
26170000000 -0.77907515 -46.310886 2.9641223 21.722172 -39.831139 41.718281 -12.259746 9.1580772
26180000000 -0.77016246 -46.399574 2.9431388 21.423916 -39.688808 42.286552 -12.163589 9.0346241
26190000000 -0.76180542 -46.456898 2.9128323 21.137691 -39.601242 41.572479 -12.169529 8.9642296
26200000000 -0.75222063 -46.523273 2.8848844 20.864305 -39.744381 40.872803 -12.093378 8.8468246
26210000000 -0.74589723 -46.579796 2.85658 20.591682 -39.779163 40.398075 -12.034613 8.5093203
26220000000 -0.73886794 -46.6269 2.8264689 20.276024 -39.690701 39.990448 -11.983685 8.6096239
26230000000 -0.73406076 -46.702549 2.8035467 19.932341 -39.825951 41.074051 -11.907462 8.5995312
26240000000 -0.73090285 -46.772465 2.7779558 19.634892 -39.822041 40.145065 -11.877718 8.593873
26250000000 -0.72879016 -46.850178 2.7435305 19.389111 -39.789642 39.484818 -11.791556 8.6407747
26260000000 -0.72537446 -46.931458 2.7176056 19.100805 -40.010983 40.097713 -11.745341 8.8226976
26270000000 -0.72072583 -47.045933 2.693779 18.823412 -39.957851 39.848434 -11.695444 8.8048229
26280000000 -0.71193558 -47.124008 2.6681223 18.532543 -40.159828 39.411297 -11.644904 8.9165354
26290000000 -0.70423675 -47.199894 2.6458049 18.227253 -39.908417 39.32383 -11.600458 9.1505604
26300000000 -0.69362509 -47.290775 2.6083994 17.925457 -39.873741 39.059006 -11.583661 8.9956293
26310000000 -0.68607074 -47.330547 2.5908768 17.69179 -40.08242 38.254627 -11.564529 9.0774899
26320000000 -0.67511445 -47.378811 2.5593708 17.376553 -40.237713 38.697601 -11.524814 9.1100626
26330000000 -0.66529858 -47.431793 2.5344849 17.10391 -39.955528 38.158882 -11.489174 9.0112839
26340000000 -0.65795809 -47.4543 2.5041218 16.812004 -40.122147 37.095901 -11.474692 9.0586262
26350000000 -0.65443933 -47.487629 2.4834476 16.509932 -40.130436 36.971455 -11.428725 8.9402046
26360000000 -0.64763033 -47.528393 2.4541647 16.236721 -40.127441 36.975307 -11.380012 8.830946
26370000000 -0.64390528 -47.580547 2.4302547 15.961641 -40.172443 35.607059 -11.350773 8.6593704
26380000000 -0.6445232 -47.648762 2.4018121 15.625479 -40.184666 38.566269 -11.288078 8.5848722
26390000000 -0.63917714 -47.697063 2.3788846 15.340244 -40.283169 36.647278 -11.259645 8.4843893
26400000000 -0.63590491 -47.76416 2.3463671 15.055272 -40.154102 36.215733 -11.213396 8.3945599
26410000000 -0.62949234 -47.837551 2.3220098 14.788195 -40.073872 36.470261 -11.144413 8.2387724
26420000000 -0.62627673 -47.898861 2.293061 14.481586 -40.165318 35.487015 -11.092852 8.2110243
26430000000 -0.61928725 -47.949974 2.2671738 14.203202 -40.24091 35.924965 -11.048847 8.1511097
26440000000 -0.60968029 -48.015182 2.2430408 13.936755 -40.26963 36.257923 -10.972651 8.1905355
26450000000 -0.60303921 -48.056499 2.2117906 13.665312 -40.347034 34.788181 -10.920371 8.0695105
26460000000 -0.59537351 -48.100536 2.1842499 13.400227 -40.222298 34.454601 -10.867197 8.1333475
26470000000 -0.58848417 -48.134762 2.156728 13.079878 -40.360077 34.931377 -10.769132 8.01546
26480000000 -0.58222824 -48.162632 2.1317019 12.794041 -40.414604 35.227905 -10.750657 7.9894586
26490000000 -0.5754602 -48.199081 2.1046715 12.509738 -40.295902 34.442017 -10.688501 8.1788664
26500000000 -0.56831384 -48.231544 2.0796208 12.275334 -40.497795 34.82848 -10.642855 8.2068596
