! Device: ADRF5703
! Frequency: 9kHz – 20 GHz
! Ports:
! ATTIN  = Port 1
! ATTOUT = Port 2
! Attenuation bit: 30
! Attenuation state: 7.5dB
! VDD = VDD3
! Temperature = 3V_V
! Data: Data was collected using a calibrated network analyzer.
! The reference plane is the package pins of ADRF5703.
! Note: Analog Devices supplies this data as a sample of measured data for this product.
! Your particular data for this product may vary.
! Analog Devices reserves the right to change this data at anytime
# GHZ S DB R 50
5.000000e-02 -30.387 -11.405  -7.955  -0.790  -7.967  -0.814 -27.841  -7.132
1.000000e-01 -30.199  -0.393  -7.962  -1.643  -7.973  -1.655 -27.645  -0.249
1.500000e-01 -30.110  -1.862  -7.967  -2.453  -7.976  -2.460 -27.581  -2.073
2.000000e-01 -30.012   0.308  -7.972  -3.259  -7.981  -3.269 -27.482   0.193
2.500000e-01 -29.921   0.195  -7.976  -4.061  -7.985  -4.071 -27.414  -1.035
3.000000e-01 -29.856   1.206  -7.979  -4.851  -7.988  -4.863 -27.369   0.233
3.500000e-01 -29.770   1.582  -7.982  -5.650  -7.992  -5.658 -27.312  -0.265
4.000000e-01 -29.710   1.830  -7.985  -6.444  -7.996  -6.455 -27.262   0.323
4.500000e-01 -29.631   1.754  -7.989  -7.238  -7.999  -7.245 -27.221  -1.065
5.000000e-01 -29.562   2.626  -7.993  -8.014  -8.002  -8.028 -27.187  -0.147
5.500000e-01 -29.520   1.684  -7.997  -8.815  -8.006  -8.820 -27.163  -1.088
6.000000e-01 -29.471   3.147  -8.001  -9.607  -8.010  -9.612 -27.134  -0.187
6.500000e-01 -29.408   1.906  -8.005 -10.389  -8.014 -10.393 -27.094  -0.903
7.000000e-01 -29.364   2.900  -8.007 -11.170  -8.018 -11.177 -27.069  -1.209
7.500000e-01 -29.295   2.064  -8.010 -11.941  -8.022 -11.955 -27.025  -1.137
8.000000e-01 -29.241   3.005  -8.013 -12.734  -8.026 -12.729 -26.998  -1.559
8.500000e-01 -29.172   2.030  -8.016 -13.516  -8.030 -13.518 -26.958  -1.106
9.000000e-01 -29.143   2.943  -8.020 -14.290  -8.034 -14.314 -26.947  -2.111
9.500000e-01 -29.080   2.313  -8.025 -15.068  -8.038 -15.085 -26.911  -1.486
     1 -29.056   2.437  -8.029 -15.857  -8.043 -15.852 -26.893  -2.662
1.050000e+00 -29.004   2.248  -8.033 -16.626  -8.047 -16.622 -26.863  -2.260
1.100000e+00 -28.959   2.278  -8.038 -17.396  -8.050 -17.400 -26.832  -2.736
1.150000e+00 -28.895   2.082  -8.042 -18.161  -8.053 -18.169 -26.799  -2.771
1.200000e+00 -28.855   2.010  -8.045 -18.940  -8.056 -18.945 -26.783  -3.175
1.250000e+00 -28.779   2.040  -8.049 -19.715  -8.060 -19.727 -26.745  -3.337
1.300000e+00 -28.733   1.423  -8.053 -20.486  -8.064 -20.498 -26.720  -3.910
1.350000e+00 -28.665   1.299  -8.056 -21.255  -8.068 -21.273 -26.686  -4.289
1.400000e+00 -28.631   1.646  -8.059 -22.021  -8.072 -22.047 -26.671  -4.263
1.450000e+00 -28.570   1.055  -8.061 -22.775  -8.075 -22.812 -26.632  -4.748
1.500000e+00 -28.552   1.064  -8.064 -23.559  -8.078 -23.565 -26.623  -4.895
1.550000e+00 -28.480   0.122  -8.067 -24.338  -8.081 -24.338 -26.577  -5.723
1.600000e+00 -28.454  -0.189  -8.071 -25.109  -8.084 -25.118 -26.555  -6.036
1.650000e+00 -28.390  -0.376  -8.075 -25.877  -8.087 -25.887 -26.513  -6.547
1.700000e+00 -28.362  -0.519  -8.079 -26.648  -8.091 -26.655 -26.499  -6.648
1.750000e+00 -28.309  -0.898  -8.083 -27.407  -8.095 -27.419 -26.475  -7.139
1.800000e+00 -28.290  -1.581  -8.086 -28.171  -8.098 -28.183 -26.465  -7.631
1.850000e+00 -28.241  -1.848  -8.090 -28.931  -8.101 -28.941 -26.448  -8.204
1.900000e+00 -28.231  -2.041  -8.093 -29.703  -8.104 -29.702 -26.452  -8.562
1.950000e+00 -28.188  -1.942  -8.096 -30.476  -8.107 -30.469 -26.444  -8.459
     2 -28.172  -2.515  -8.098 -31.245  -8.110 -31.246 -26.439  -8.977
2.050000e+00 -28.118  -2.926  -8.101 -32.006  -8.113 -32.013 -26.431  -9.467
2.100000e+00 -28.106  -3.827  -8.104 -32.767  -8.116 -32.778 -26.430 -10.373
2.150000e+00 -28.036  -3.413  -8.106 -33.531  -8.120 -33.542 -26.410  -9.884
2.200000e+00 -28.002  -4.553  -8.109 -34.288  -8.122 -34.303 -26.387 -11.136
2.250000e+00 -27.944  -4.020  -8.111 -35.052  -8.125 -35.062 -26.375 -10.650
2.300000e+00 -27.918  -5.391  -8.114 -35.828  -8.127 -35.820 -26.342 -11.945
2.350000e+00 -27.880  -4.679  -8.117 -36.604  -8.130 -36.589 -26.338 -11.597
2.400000e+00 -27.844  -6.338  -8.121 -37.369  -8.133 -37.350 -26.294 -12.318
2.450000e+00 -27.813  -5.291  -8.125 -38.141  -8.137 -38.116 -26.288 -12.756
2.500000e+00 -27.762  -7.375  -8.129 -38.899  -8.140 -38.877 -26.241 -13.020
2.550000e+00 -27.745  -6.476  -8.133 -39.662  -8.143 -39.643 -26.244 -13.902
2.600000e+00 -27.683  -7.990  -8.136 -40.422  -8.146 -40.406 -26.205 -13.478
2.650000e+00 -27.682  -7.570  -8.139 -41.191  -8.149 -41.166 -26.202 -14.926
2.700000e+00 -27.636  -8.565  -8.142 -41.948  -8.151 -41.926 -26.171 -14.722
2.750000e+00 -27.633  -9.140  -8.145 -42.708  -8.154 -42.696 -26.149 -16.032
2.800000e+00 -27.588  -9.390  -8.148 -43.469  -8.156 -43.456 -26.141 -15.966
2.850000e+00 -27.584 -10.530  -8.150 -44.237  -8.159 -44.219 -26.120 -16.665
2.900000e+00 -27.551  -9.818  -8.154 -44.999  -8.162 -44.985 -26.126 -16.884
2.950000e+00 -27.549 -11.202  -8.157 -45.760  -8.166 -45.747 -26.124 -17.341
     3 -27.537 -10.842  -8.160 -46.517  -8.170 -46.521 -26.149 -18.160
3.050000e+00 -27.543 -11.873  -8.163 -47.274  -8.173 -47.279 -26.140 -17.947
3.100000e+00 -27.537 -12.031  -8.166 -48.035  -8.176 -48.045 -26.153 -19.499
3.150000e+00 -27.539 -12.571  -8.169 -48.796  -8.180 -48.803 -26.155 -18.912
3.200000e+00 -27.518 -13.070  -8.172 -49.557  -8.183 -49.570 -26.141 -20.205
3.250000e+00 -27.511 -13.527  -8.175 -50.313  -8.185 -50.330 -26.145 -20.114
3.300000e+00 -27.496 -14.201  -8.178 -51.066  -8.188 -51.100 -26.140 -21.104
3.350000e+00 -27.487 -14.364  -8.181 -51.824  -8.191 -51.859 -26.154 -21.231
3.400000e+00 -27.468 -14.812  -8.184 -52.581  -8.194 -52.620 -26.154 -21.639
3.450000e+00 -27.464 -15.604  -8.187 -53.341  -8.196 -53.383 -26.169 -22.242
3.500000e+00 -27.461 -15.778  -8.190 -54.102  -8.199 -54.144 -26.174 -22.583
3.550000e+00 -27.452 -16.936  -8.193 -54.865  -8.202 -54.899 -26.180 -23.437
3.600000e+00 -27.456 -16.847  -8.196 -55.624  -8.205 -55.658 -26.188 -23.573
3.650000e+00 -27.459 -17.922  -8.199 -56.383  -8.208 -56.421 -26.197 -24.549
3.700000e+00 -27.496 -17.889  -8.202 -57.140  -8.211 -57.187 -26.229 -24.850
3.750000e+00 -27.507 -18.476  -8.205 -57.897  -8.214 -57.944 -26.258 -25.555
3.800000e+00 -27.543 -19.352  -8.208 -58.650  -8.218 -58.702 -26.276 -25.718
3.850000e+00 -27.567 -19.456  -8.210 -59.410  -8.221 -59.461 -26.311 -27.145
3.900000e+00 -27.600 -20.548  -8.213 -60.171  -8.224 -60.219 -26.333 -26.790
3.950000e+00 -27.616 -19.956  -8.216 -60.930  -8.227 -60.979 -26.361 -27.770
     4 -27.636 -21.636  -8.218 -61.696  -8.230 -61.726 -26.371 -27.518
4.050000e+00 -27.663 -20.679  -8.221 -62.459  -8.233 -62.497 -26.419 -28.653
4.100000e+00 -27.668 -21.987  -8.224 -63.218  -8.236 -63.245 -26.445 -28.306
4.150000e+00 -27.696 -21.530  -8.226 -63.976  -8.239 -64.011 -26.477 -29.339
4.200000e+00 -27.689 -22.468  -8.229 -64.732  -8.242 -64.758 -26.512 -29.272
4.250000e+00 -27.731 -22.677  -8.231 -65.494  -8.244 -65.525 -26.542 -30.081
4.300000e+00 -27.725 -22.801  -8.234 -66.254  -8.246 -66.279 -26.576 -30.555
4.350000e+00 -27.766 -23.550  -8.237 -67.013  -8.247 -67.038 -26.593 -30.727
4.400000e+00 -27.764 -23.396  -8.240 -67.773  -8.250 -67.789 -26.620 -31.543
4.450000e+00 -27.792 -24.186  -8.243 -68.529  -8.252 -68.554 -26.638 -31.504
4.500000e+00 -27.770 -24.360  -8.246 -69.291  -8.254 -69.311 -26.675 -32.566
4.550000e+00 -27.794 -24.813  -8.248 -70.048  -8.257 -70.068 -26.712 -32.102
4.600000e+00 -27.791 -24.949  -8.251 -70.803  -8.259 -70.824 -26.746 -33.360
4.650000e+00 -27.828 -25.214  -8.254 -71.564  -8.262 -71.588 -26.794 -32.981
4.700000e+00 -27.834 -25.581  -8.256 -72.322  -8.265 -72.340 -26.823 -33.790
4.750000e+00 -27.877 -26.421  -8.259 -73.082  -8.268 -73.101 -26.862 -34.067
4.800000e+00 -27.875 -26.299  -8.263 -73.839  -8.272 -73.854 -26.895 -34.076
4.850000e+00 -27.904 -27.056  -8.266 -74.597  -8.274 -74.617 -26.919 -34.986
4.900000e+00 -27.896 -26.244  -8.269 -75.355  -8.276 -75.367 -26.958 -34.475
4.950000e+00 -27.916 -27.809  -8.271 -76.118  -8.279 -76.126 -26.970 -35.792
     5 -27.924 -26.622  -8.273 -76.877  -8.281 -76.877 -27.024 -35.369
5.050000e+00 -27.942 -28.676  -8.276 -77.640  -8.282 -77.635 -27.021 -36.339
5.100000e+00 -27.958 -26.994  -8.278 -78.398  -8.284 -78.392 -27.084 -36.065
5.150000e+00 -27.962 -28.891  -8.280 -79.156  -8.287 -79.152 -27.081 -36.447
5.200000e+00 -28.001 -27.494  -8.283 -79.909  -8.289 -79.904 -27.130 -36.618
5.250000e+00 -27.982 -28.883  -8.286 -80.668  -8.292 -80.659 -27.133 -36.674
5.300000e+00 -28.019 -28.443  -8.288 -81.427  -8.294 -81.418 -27.177 -37.216
5.350000e+00 -27.969 -28.960  -8.290 -82.173  -8.296 -82.184 -27.189 -37.090
5.400000e+00 -28.007 -29.592  -8.292 -82.930  -8.297 -82.946 -27.215 -37.955
5.450000e+00 -27.974 -29.068  -8.295 -83.689  -8.299 -83.700 -27.240 -38.095
5.500000e+00 -28.009 -30.039  -8.297 -84.449  -8.301 -84.460 -27.246 -38.609
5.550000e+00 -27.978 -29.675  -8.298 -85.208  -8.303 -85.216 -27.256 -38.593
5.600000e+00 -28.021 -30.824  -8.300 -85.968  -8.306 -85.977 -27.254 -39.243
5.650000e+00 -27.991 -30.042  -8.303 -86.731  -8.308 -86.738 -27.283 -39.297
5.700000e+00 -27.984 -31.070  -8.305 -87.480  -8.310 -87.492 -27.302 -39.330
5.750000e+00 -27.959 -30.805  -8.308 -88.242  -8.313 -88.260 -27.320 -39.689
5.800000e+00 -27.960 -31.500  -8.310 -89.000  -8.315 -89.018 -27.334 -40.118
5.850000e+00 -27.932 -30.945  -8.312 -89.752  -8.316 -89.775 -27.361 -40.064
5.900000e+00 -27.922 -31.974  -8.314 -90.513  -8.319 -90.533 -27.361 -40.569
5.950000e+00 -27.916 -31.485  -8.316 -91.269  -8.321 -91.283 -27.373 -40.509
     6 -27.911 -32.483  -8.318 -92.030  -8.323 -92.047 -27.377 -41.283
6.050000e+00 -27.898 -31.610  -8.320 -92.792  -8.326 -92.798 -27.407 -41.246
6.100000e+00 -27.876 -33.177  -8.322 -93.554  -8.329 -93.565 -27.398 -41.358
6.150000e+00 -27.876 -32.429  -8.324 -94.311  -8.330 -94.313 -27.416 -41.727
6.200000e+00 -27.842 -33.484  -8.326 -95.071  -8.332 -95.074 -27.414 -41.793
6.250000e+00 -27.834 -32.824  -8.328 -95.831  -8.334 -95.829 -27.422 -42.611
6.300000e+00 -27.792 -33.981  -8.331 -96.590  -8.336 -96.590 -27.426 -41.912
6.350000e+00 -27.811 -33.937  -8.333 -97.349  -8.338 -97.350 -27.411 -43.467
6.400000e+00 -27.754 -33.810  -8.335 -98.105  -8.339 -98.111 -27.435 -42.827
6.450000e+00 -27.755 -35.111  -8.337 -98.862  -8.342 -98.871 -27.414 -43.531
6.500000e+00 -27.718 -34.589  -8.339 -99.626  -8.343 -99.631 -27.438 -43.503
6.550000e+00 -27.729 -35.677  -8.341 -100.387  -8.346 -100.386 -27.413 -43.923
6.600000e+00 -27.700 -34.537  -8.342 -101.146  -8.348 -101.142 -27.452 -44.657
6.650000e+00 -27.690 -36.227  -8.344 -101.899  -8.350 -101.901 -27.431 -44.162
6.700000e+00 -27.693 -35.848  -8.346 -102.663  -8.352 -102.664 -27.440 -45.798
6.750000e+00 -27.667 -36.619  -8.348 -103.424  -8.354 -103.427 -27.446 -44.915
6.800000e+00 -27.673 -36.826  -8.350 -104.184  -8.356 -104.191 -27.455 -46.299
6.850000e+00 -27.640 -36.929  -8.353 -104.930  -8.358 -104.949 -27.466 -45.468
6.900000e+00 -27.660 -37.980  -8.355 -105.695  -8.360 -105.714 -27.464 -46.996
6.950000e+00 -27.625 -37.253  -8.357 -106.458  -8.361 -106.477 -27.502 -46.672
     7 -27.628 -38.758  -8.359 -107.217  -8.364 -107.236 -27.487 -47.237
7.050000e+00 -27.602 -38.041  -8.361 -107.978  -8.366 -108.001 -27.500 -47.629
7.100000e+00 -27.590 -39.309  -8.363 -108.731  -8.368 -108.760 -27.494 -47.723
7.150000e+00 -27.585 -38.838  -8.365 -109.494  -8.370 -109.512 -27.508 -48.496
7.200000e+00 -27.567 -39.753  -8.367 -110.256  -8.373 -110.270 -27.510 -48.201
7.250000e+00 -27.572 -39.818  -8.369 -111.014  -8.374 -111.034 -27.528 -49.102
7.300000e+00 -27.556 -40.585  -8.372 -111.772  -8.377 -111.787 -27.544 -49.223
7.350000e+00 -27.573 -40.906  -8.374 -112.535  -8.379 -112.555 -27.546 -49.787
7.400000e+00 -27.559 -41.325  -8.376 -113.295  -8.381 -113.318 -27.545 -50.383
7.450000e+00 -27.576 -41.727  -8.379 -114.051  -8.383 -114.074 -27.553 -50.284
7.500000e+00 -27.567 -41.994  -8.381 -114.813  -8.385 -114.835 -27.549 -50.974
7.550000e+00 -27.568 -42.577  -8.383 -115.574  -8.388 -115.590 -27.578 -51.193
7.600000e+00 -27.558 -43.140  -8.385 -116.332  -8.390 -116.354 -27.577 -51.828
7.650000e+00 -27.560 -43.555  -8.387 -117.087  -8.392 -117.110 -27.600 -52.341
7.700000e+00 -27.557 -44.207  -8.389 -117.853  -8.394 -117.880 -27.608 -53.208
7.750000e+00 -27.578 -44.546  -8.391 -118.607  -8.397 -118.631 -27.636 -53.564
7.800000e+00 -27.577 -45.042  -8.394 -119.370  -8.399 -119.394 -27.639 -53.830
7.850000e+00 -27.590 -45.573  -8.396 -120.127  -8.402 -120.151 -27.679 -54.546
7.900000e+00 -27.589 -45.929  -8.398 -120.892  -8.405 -120.921 -27.715 -54.801
7.950000e+00 -27.612 -46.590  -8.401 -121.647  -8.408 -121.672 -27.730 -55.434
     8 -27.619 -46.462  -8.403 -122.415  -8.411 -122.433 -27.749 -56.485
8.050000e+00 -27.648 -47.865  -8.405 -123.175  -8.414 -123.194 -27.776 -56.628
8.100000e+00 -27.679 -47.500  -8.407 -123.938  -8.417 -123.951 -27.795 -57.471
8.150000e+00 -27.699 -48.756  -8.410 -124.694  -8.419 -124.708 -27.840 -57.515
8.200000e+00 -27.728 -48.677  -8.412 -125.454  -8.421 -125.467 -27.868 -58.862
8.250000e+00 -27.735 -49.334  -8.414 -126.212  -8.423 -126.234 -27.921 -59.027
8.300000e+00 -27.763 -50.059  -8.416 -126.974  -8.426 -126.991 -27.944 -59.684
8.350000e+00 -27.780 -49.839  -8.418 -127.731  -8.428 -127.746 -28.002 -60.291
8.400000e+00 -27.807 -51.010  -8.421 -128.489  -8.430 -128.508 -28.020 -60.226
8.450000e+00 -27.837 -50.727  -8.423 -129.251  -8.433 -129.259 -28.071 -61.804
8.500000e+00 -27.852 -52.040  -8.426 -130.012  -8.435 -130.023 -28.118 -61.459
8.550000e+00 -27.908 -51.966  -8.428 -130.772  -8.437 -130.787 -28.156 -62.984
8.600000e+00 -27.917 -52.682  -8.431 -131.529  -8.440 -131.543 -28.204 -62.602
8.650000e+00 -27.968 -53.145  -8.433 -132.297  -8.441 -132.304 -28.245 -64.237
8.700000e+00 -27.975 -54.013  -8.435 -133.056  -8.444 -133.068 -28.311 -63.724
8.750000e+00 -28.041 -54.513  -8.437 -133.821  -8.446 -133.828 -28.345 -65.012
8.800000e+00 -28.052 -54.223  -8.440 -134.580  -8.448 -134.589 -28.417 -65.672
8.850000e+00 -28.110 -55.926  -8.442 -135.344  -8.450 -135.354 -28.453 -66.195
8.900000e+00 -28.161 -55.026  -8.444 -136.099  -8.453 -136.116 -28.500 -67.109
8.950000e+00 -28.212 -56.848  -8.446 -136.863  -8.455 -136.879 -28.552 -67.488
     9 -28.269 -55.831  -8.449 -137.622  -8.457 -137.629 -28.604 -67.935
9.050000e+00 -28.298 -57.864  -8.451 -138.384  -8.459 -138.390 -28.670 -68.534
9.100000e+00 -28.357 -57.331  -8.453 -139.148  -8.461 -139.163 -28.732 -69.292
9.150000e+00 -28.386 -58.691  -8.455 -139.908  -8.464 -139.919 -28.804 -70.309
9.200000e+00 -28.463 -58.188  -8.457 -140.671  -8.466 -140.683 -28.855 -70.341
9.250000e+00 -28.500 -59.032  -8.460 -141.432  -8.469 -141.436 -28.934 -71.768
9.300000e+00 -28.597 -59.200  -8.462 -142.192  -8.471 -142.206 -29.003 -71.571
9.350000e+00 -28.638 -59.973  -8.465 -142.958  -8.473 -142.962 -29.072 -72.741
9.400000e+00 -28.713 -59.928  -8.467 -143.715  -8.476 -143.733 -29.153 -73.410
9.450000e+00 -28.745 -61.290  -8.469 -144.472  -8.478 -144.494 -29.226 -73.852
9.500000e+00 -28.834 -60.532  -8.471 -145.238  -8.480 -145.265 -29.283 -74.776
9.550000e+00 -28.842 -61.584  -8.473 -145.994  -8.482 -146.022 -29.369 -75.495
9.600000e+00 -28.950 -62.042  -8.475 -146.765  -8.485 -146.787 -29.441 -75.977
9.650000e+00 -28.981 -62.218  -8.478 -147.516  -8.487 -147.549 -29.520 -76.621
9.700000e+00 -29.088 -63.208  -8.480 -148.284  -8.490 -148.321 -29.602 -77.194
9.750000e+00 -29.132 -62.681  -8.483 -149.038  -8.493 -149.074 -29.693 -78.202
9.800000e+00 -29.251 -64.329  -8.485 -149.809  -8.496 -149.835 -29.781 -78.039
9.850000e+00 -29.308 -62.961  -8.488 -150.572  -8.498 -150.598 -29.874 -80.174
9.900000e+00 -29.396 -65.162  -8.490 -151.336  -8.500 -151.364 -30.013 -79.319
9.950000e+00 -29.486 -63.904  -8.494 -152.096  -8.503 -152.123 -30.073 -80.887
    10 -29.558 -66.111  -8.496 -152.853  -8.506 -152.890 -30.201 -81.147
1.005000e+01 -29.670 -64.800  -8.499 -153.621  -8.508 -153.658 -30.237 -81.992
1.010000e+01 -29.727 -66.002  -8.502 -154.388  -8.510 -154.429 -30.363 -82.803
1.015000e+01 -29.852 -65.497  -8.505 -155.154  -8.513 -155.188 -30.394 -82.963
1.020000e+01 -29.905 -66.116  -8.507 -155.914  -8.515 -155.950 -30.532 -84.600
1.025000e+01 -30.009 -66.581  -8.510 -156.670  -8.518 -156.714 -30.598 -83.188
1.030000e+01 -30.066 -66.434  -8.512 -157.435  -8.522 -157.467 -30.738 -86.595
1.035000e+01 -30.178 -67.641  -8.515 -158.201  -8.525 -158.223 -30.840 -84.344
1.040000e+01 -30.266 -66.405  -8.517 -158.970  -8.528 -158.994 -30.948 -87.561
1.045000e+01 -30.363 -67.416  -8.520 -159.729  -8.530 -159.762 -31.064 -86.288
1.050000e+01 -30.475 -67.352  -8.522 -160.501  -8.533 -160.514 -31.154 -88.878
1.055000e+01 -30.576 -67.819  -8.525 -161.263  -8.534 -161.280 -31.254 -88.368
1.060000e+01 -30.682 -68.617  -8.528 -162.030  -8.537 -162.047 -31.345 -89.751
1.065000e+01 -30.795 -68.416  -8.532 -162.790  -8.539 -162.816 -31.487 -90.367
1.070000e+01 -30.911 -69.158  -8.535 -163.555  -8.542 -163.578 -31.613 -90.822
1.075000e+01 -31.024 -68.877  -8.538 -164.320  -8.545 -164.349 -31.781 -92.126
1.080000e+01 -31.134 -69.301  -8.542 -165.084  -8.548 -165.105 -31.926 -92.546
1.085000e+01 -31.250 -69.482  -8.544 -165.838  -8.551 -165.874 -32.069 -93.374
1.090000e+01 -31.375 -69.058  -8.546 -166.600  -8.554 -166.648 -32.187 -94.767
1.095000e+01 -31.466 -69.758  -8.549 -167.366  -8.558 -167.413 -32.347 -94.663
    11 -31.621 -69.080  -8.552 -168.133  -8.561 -168.177 -32.468 -95.117
1.105000e+01 -31.697 -70.170  -8.554 -168.909  -8.564 -168.926 -32.644 -96.096
1.110000e+01 -31.871 -69.623  -8.557 -169.671  -8.567 -169.685 -32.765 -96.601
1.115000e+01 -31.937 -69.728  -8.560 -170.436  -8.569 -170.443 -32.956 -98.378
1.120000e+01 -32.136 -70.192  -8.563 -171.193  -8.572 -171.222 -33.098 -98.249
1.125000e+01 -32.227 -68.995  -8.566 -171.959  -8.574 -171.989 -33.238 -100.079
1.130000e+01 -32.396 -70.856  -8.569 -172.737  -8.577 -172.765 -33.387 -99.966
1.135000e+01 -32.498 -68.737  -8.573 -173.510  -8.581 -173.527 -33.510 -101.320
1.140000e+01 -32.630 -72.162  -8.576 -174.274  -8.584 -174.301 -33.653 -102.589
1.145000e+01 -32.772 -68.603  -8.580 -175.026  -8.587 -175.057 -33.739 -102.536
1.150000e+01 -32.812 -72.218  -8.582 -175.789  -8.590 -175.827 -33.938 -105.020
1.155000e+01 -32.988 -69.260  -8.585 -176.563  -8.593 -176.594 -34.045 -103.291
1.160000e+01 -33.027 -71.478  -8.588 -177.325  -8.597 -177.360 -34.209 -107.378
1.165000e+01 -33.216 -70.015  -8.591 -178.095  -8.600 -178.125 -34.363 -105.079
1.170000e+01 -33.244 -69.882  -8.594 -178.849  -8.603 -178.889 -34.484 -108.615
1.175000e+01 -33.471 -70.445  -8.597 -179.621  -8.606 -179.658 -34.632 -107.709
1.180000e+01 -33.544 -68.448  -8.600 179.616  -8.610 179.584 -34.729 -110.919
1.185000e+01 -33.737 -70.715  -8.603 178.844  -8.613 178.820 -34.954 -110.812
1.190000e+01 -33.836 -68.043  -8.606 178.092  -8.616 178.052 -35.022 -111.324
1.195000e+01 -33.986 -70.544  -8.609 177.320  -8.620 177.279 -35.194 -114.876
    12 -34.081 -68.967  -8.613 176.561  -8.623 176.525 -35.280 -113.054
1.205000e+01 -34.204 -69.834  -8.615 175.795  -8.625 175.759 -35.458 -117.458
1.210000e+01 -34.316 -69.159  -8.618 175.045  -8.628 175.005 -35.586 -114.418
1.215000e+01 -34.479 -68.311  -8.621 174.275  -8.631 174.233 -35.735 -120.652
1.220000e+01 -34.614 -68.325  -8.624 173.507  -8.633 173.477 -35.948 -117.928
1.225000e+01 -34.781 -67.892  -8.627 172.734  -8.636 172.703 -36.086 -121.601
1.230000e+01 -34.896 -67.901  -8.629 171.969  -8.639 171.936 -36.267 -121.342
1.235000e+01 -35.063 -68.229  -8.632 171.205  -8.641 171.165 -36.386 -122.914
1.240000e+01 -35.117 -65.721  -8.635 170.433  -8.644 170.401 -36.571 -124.935
1.245000e+01 -35.244 -67.701  -8.638 169.665  -8.647 169.637 -36.690 -125.254
1.250000e+01 -35.343 -64.725  -8.640 168.894  -8.650 168.861 -36.852 -127.549
1.255000e+01 -35.451 -66.837  -8.644 168.132  -8.653 168.093 -36.988 -128.480
1.260000e+01 -35.543 -64.205  -8.647 167.355  -8.657 167.332 -37.148 -128.669
1.265000e+01 -35.639 -65.693  -8.651 166.596  -8.660 166.563 -37.293 -130.612
1.270000e+01 -35.766 -63.942  -8.654 165.829  -8.663 165.802 -37.470 -131.012
1.275000e+01 -35.840 -63.135  -8.658 165.057  -8.666 165.036 -37.612 -134.243
1.280000e+01 -35.959 -64.032  -8.660 164.294  -8.669 164.271 -37.754 -134.804
1.285000e+01 -36.061 -61.560  -8.663 163.538  -8.672 163.496 -37.842 -136.488
1.290000e+01 -36.149 -63.121  -8.666 162.754  -8.675 162.738 -37.953 -139.018
1.295000e+01 -36.227 -61.261  -8.668 161.999  -8.678 161.964 -38.041 -138.077
    13 -36.301 -62.450  -8.671 161.227  -8.681 161.209 -38.081 -141.950
1.305000e+01 -36.410 -60.758  -8.673 160.466  -8.683 160.435 -38.255 -142.714
1.310000e+01 -36.471 -58.944  -8.676 159.697  -8.686 159.675 -38.366 -144.936
1.315000e+01 -36.600 -60.338  -8.678 158.924  -8.688 158.900 -38.616 -148.709
1.320000e+01 -36.725 -55.968  -8.681 158.159  -8.690 158.139 -38.685 -147.222
1.325000e+01 -36.768 -60.783  -8.684 157.384  -8.694 157.374 -38.846 -152.632
1.330000e+01 -36.930 -55.630  -8.686 156.625  -8.696 156.603 -38.921 -149.741
1.335000e+01 -36.919 -58.509  -8.689 155.836  -8.698 155.835 -38.991 -156.836
1.340000e+01 -37.105 -55.381  -8.692 155.089  -8.700 155.063 -39.156 -152.992
1.345000e+01 -37.039 -55.334  -8.695 154.303  -8.703 154.297 -39.227 -157.321
1.350000e+01 -37.203 -56.974  -8.698 153.554  -8.706 153.522 -39.482 -159.556
1.355000e+01 -37.095 -50.969  -8.701 152.784  -8.709 152.751 -39.477 -160.241
1.360000e+01 -37.237 -56.552  -8.704 152.030  -8.712 151.972 -39.609 -169.126
1.365000e+01 -37.185 -46.649  -8.707 151.250  -8.716 151.218 -39.531 -162.814
1.370000e+01 -37.194 -54.330  -8.709 150.481  -8.719 150.440 -39.590 -175.135
1.375000e+01 -37.267 -45.599  -8.711 149.708  -8.722 149.678 -39.722 -165.591
1.380000e+01 -37.224 -51.246  -8.714 148.939  -8.725 148.907 -39.707 -179.083
1.385000e+01 -37.323 -44.690  -8.716 148.167  -8.727 148.133 -39.998 -173.025
1.390000e+01 -37.250 -47.562  -8.719 147.388  -8.730 147.366 -39.832 -178.867
1.395000e+01 -37.392 -45.271  -8.722 146.636  -8.732 146.596 -40.019 179.799
    14 -37.222 -43.618  -8.725 145.855  -8.736 145.829 -39.794 -177.851
1.405000e+01 -37.323 -48.837  -8.728 145.086  -8.739 145.057 -39.945 173.410
1.410000e+01 -37.191 -40.015  -8.731 144.317  -8.743 144.287 -39.722 179.180
1.415000e+01 -37.144 -45.802  -8.734 143.548  -8.746 143.529 -39.801 166.807
1.420000e+01 -37.110 -39.017  -8.738 142.785  -8.749 142.748 -39.733 175.140
1.425000e+01 -37.065 -41.538  -8.741 142.022  -8.752 141.989 -39.638 164.872
1.430000e+01 -37.045 -37.705  -8.743 141.244  -8.755 141.218 -39.637 168.227
1.435000e+01 -36.934 -39.496  -8.746 140.488  -8.758 140.446 -39.482 163.325
1.440000e+01 -36.937 -39.688  -8.748 139.713  -8.761 139.680 -39.529 159.882
1.445000e+01 -36.772 -36.394  -8.750 138.945  -8.765 138.900 -39.393 158.978
1.450000e+01 -36.754 -39.742  -8.753 138.167  -8.767 138.130 -39.428 156.428
1.455000e+01 -36.758 -34.883  -8.756 137.392  -8.770 137.352 -39.225 156.129
1.460000e+01 -36.716 -35.985  -8.759 136.610  -8.773 136.590 -39.190 153.809
1.465000e+01 -36.706 -34.549  -8.763 135.852  -8.776 135.806 -38.986 152.305
1.470000e+01 -36.707 -36.490  -8.765 135.083  -8.779 135.044 -38.908 150.216
1.475000e+01 -36.678 -33.671  -8.769 134.306  -8.782 134.274 -38.686 147.429
1.480000e+01 -36.509 -34.506  -8.772 133.533  -8.786 133.512 -38.633 145.085
1.485000e+01 -36.483 -34.940  -8.774 132.762  -8.789 132.730 -38.464 146.079
1.490000e+01 -36.413 -32.444  -8.777 131.991  -8.793 131.965 -38.383 140.494
1.495000e+01 -36.295 -33.197  -8.780 131.219  -8.796 131.195 -38.229 143.717
    15 -36.271 -34.115  -8.783 130.431  -8.800 130.435 -38.111 137.260
1.505000e+01 -36.307 -31.531  -8.786 129.651  -8.803 129.666 -37.994 141.031
1.510000e+01 -36.205 -31.790  -8.789 128.877  -8.806 128.914 -37.766 134.707
1.515000e+01 -36.271 -31.406  -8.793 128.103  -8.809 128.126 -37.652 136.717
1.520000e+01 -36.226 -32.903  -8.796 127.329  -8.812 127.350 -37.353 134.207
1.525000e+01 -36.266 -28.036  -8.799 126.548  -8.816 126.590 -37.230 131.114
1.530000e+01 -36.053 -32.972  -8.803 125.772  -8.819 125.810 -36.977 133.067
1.535000e+01 -36.273 -31.088  -8.806 125.002  -8.822 125.045 -36.879 127.549
1.540000e+01 -35.966 -26.285  -8.811 124.229  -8.825 124.282 -36.712 131.676
1.545000e+01 -36.006 -33.225  -8.814 123.439  -8.827 123.528 -36.601 125.328
1.550000e+01 -35.911 -25.682  -8.818 122.674  -8.829 122.734 -36.491 128.790
1.555000e+01 -35.913 -32.661  -8.822 121.886  -8.832 121.955 -36.285 124.848
1.560000e+01 -35.716 -21.915  -8.826 121.128  -8.835 121.196 -36.181 124.268
1.565000e+01 -35.716 -35.374  -8.830 120.326  -8.837 120.413 -35.969 123.426
1.570000e+01 -35.836 -20.601  -8.835 119.576  -8.840 119.639 -35.824 120.281
1.575000e+01 -35.483 -30.132  -8.840 118.783  -8.843 118.870 -35.665 123.706
1.580000e+01 -35.698 -25.991  -8.845 118.029  -8.846 118.096 -35.523 117.822
1.585000e+01 -35.480 -27.614  -8.850 117.239  -8.848 117.322 -35.436 121.869
1.590000e+01 -35.551 -24.574  -8.855 116.481  -8.851 116.541 -35.245 117.203
1.595000e+01 -35.205 -26.284  -8.860 115.701  -8.854 115.769 -35.155 117.904
    16 -35.451 -28.992  -8.866 114.930  -8.856 114.966 -34.917 115.179
1.605000e+01 -35.155 -22.175  -8.871 114.165  -8.860 114.205 -34.827 112.943
1.610000e+01 -35.184 -29.188  -8.874 113.414  -8.864 113.426 -34.614 114.659
1.615000e+01 -35.154 -23.236  -8.879 112.648  -8.867 112.639 -34.469 110.409
1.620000e+01 -35.142 -26.333  -8.882 111.874  -8.871 111.856 -34.371 112.819
1.625000e+01 -35.032 -22.598  -8.885 111.119  -8.875 111.089 -34.210 109.358
1.630000e+01 -35.036 -26.662  -8.888 110.332  -8.878 110.302 -34.078 109.476
1.635000e+01 -35.005 -21.785  -8.892 109.559  -8.881 109.524 -33.887 107.671
1.640000e+01 -34.848 -23.264  -8.895 108.783  -8.885 108.755 -33.805 106.007
1.645000e+01 -34.843 -23.615  -8.898 108.018  -8.888 107.959 -33.616 106.734
1.650000e+01 -34.767 -22.901  -8.901 107.250  -8.892 107.173 -33.537 103.606
1.655000e+01 -34.617 -20.652  -8.904 106.485  -8.896 106.390 -33.412 104.915
1.660000e+01 -34.549 -25.114  -8.907 105.691  -8.900 105.619 -33.285 101.746
1.665000e+01 -34.500 -18.968  -8.910 104.922  -8.904 104.846 -33.159 102.187
1.670000e+01 -34.327 -23.550  -8.914 104.136  -8.908 104.068 -33.018 100.614
1.675000e+01 -34.311 -18.869  -8.917 103.366  -8.911 103.292 -32.882  99.951
1.680000e+01 -34.192 -22.836  -8.921 102.586  -8.915 102.505 -32.738  98.304
1.685000e+01 -34.152 -17.774  -8.924 101.826  -8.918 101.738 -32.623  97.613
1.690000e+01 -33.967 -20.703  -8.928 101.042  -8.922 100.952 -32.462  96.277
1.695000e+01 -34.007 -19.511  -8.931 100.276  -8.925 100.176 -32.341  96.166
    17 -33.765 -17.142  -8.934  99.473  -8.929  99.394 -32.191  95.120
1.705000e+01 -33.712 -20.307  -8.938  98.709  -8.933  98.617 -32.079  94.533
1.710000e+01 -33.590 -15.998  -8.941  97.914  -8.937  97.829 -31.904  92.080
1.715000e+01 -33.461 -18.420  -8.944  97.147  -8.941  97.039 -31.821  91.562
1.720000e+01 -33.343 -15.158  -8.947  96.375  -8.945  96.262 -31.636  90.229
1.725000e+01 -33.245 -18.510  -8.950  95.586  -8.949  95.480 -31.557  88.841
1.730000e+01 -33.191 -15.091  -8.953  94.812  -8.953  94.716 -31.400  89.323
1.735000e+01 -32.991 -16.859  -8.955  94.037  -8.956  93.932 -31.304  86.125
1.740000e+01 -32.961 -17.512  -8.958  93.259  -8.959  93.142 -31.151  88.087
1.745000e+01 -32.796 -13.306  -8.962  92.480  -8.962  92.375 -31.010  83.028
1.750000e+01 -32.653 -18.028  -8.965  91.691  -8.966  91.581 -30.910  86.863
1.755000e+01 -32.526 -13.451  -8.968  90.905  -8.970  90.788 -30.724  81.694
1.760000e+01 -32.327 -18.506  -8.972  90.115  -8.974  90.017 -30.713  83.244
1.765000e+01 -32.233 -14.325  -8.975  89.331  -8.978  89.228 -30.541  81.308
1.770000e+01 -31.974 -16.825  -8.978  88.545  -8.981  88.444 -30.513  79.382
1.775000e+01 -31.911 -16.049  -8.982  87.766  -8.985  87.664 -30.358  80.151
1.780000e+01 -31.665 -14.342  -8.986  86.991  -8.988  86.875 -30.283  76.184
1.785000e+01 -31.593 -18.110  -8.990  86.205  -8.992  86.092 -30.142  79.305
1.790000e+01 -31.391 -13.395  -8.993  85.435  -8.996  85.320 -30.043  74.888
1.795000e+01 -31.241 -18.872  -8.997  84.636  -9.000  84.515 -29.981  76.904
    18 -31.098 -13.970  -9.000  83.839  -9.004  83.739 -29.849  73.437
1.805000e+01 -30.896 -18.040  -9.004  83.051  -9.008  82.938 -29.818  73.252
1.810000e+01 -30.770 -15.467  -9.007  82.300  -9.012  82.184 -29.688  73.067
1.815000e+01 -30.548 -17.529  -9.011  81.494  -9.016  81.391 -29.639  70.974
1.820000e+01 -30.459 -18.239  -9.015  80.715  -9.020  80.610 -29.554  71.812
1.825000e+01 -30.250 -16.828  -9.019  79.907  -9.024  79.814 -29.455  68.588
1.830000e+01 -30.119 -20.052  -9.023  79.121  -9.028  79.037 -29.391  69.043
1.835000e+01 -29.960 -16.634  -9.028  78.335  -9.032  78.234 -29.260  67.375
1.840000e+01 -29.781 -19.803  -9.032  77.552  -9.036  77.465 -29.206  66.348
1.845000e+01 -29.643 -17.751  -9.036  76.748  -9.040  76.652 -29.040  66.230
1.850000e+01 -29.446 -19.329  -9.040  75.972  -9.045  75.881 -28.981  63.230
1.855000e+01 -29.338 -19.242  -9.044  75.185  -9.049  75.086 -28.874  64.284
1.860000e+01 -29.148 -18.511  -9.048  74.404  -9.054  74.315 -28.788  61.422
1.865000e+01 -29.044 -21.468  -9.052  73.627  -9.058  73.518 -28.735  62.570
1.870000e+01 -28.885 -18.550  -9.056  72.822  -9.062  72.735 -28.627  60.178
1.875000e+01 -28.741 -22.394  -9.059  72.047  -9.065  71.953 -28.599  59.896
1.880000e+01 -28.624 -19.548  -9.064  71.252  -9.070  71.178 -28.449  59.052
1.885000e+01 -28.454 -21.798  -9.067  70.483  -9.074  70.374 -28.395  57.084
1.890000e+01 -28.359 -21.085  -9.072  69.686  -9.078  69.591 -28.252  58.182
1.895000e+01 -28.187 -21.372  -9.076  68.900  -9.082  68.805 -28.179  55.199
    19 -28.074 -22.241  -9.081  68.110  -9.087  68.013 -28.084  56.843
1.905000e+01 -27.896 -21.876  -9.086  67.327  -9.092  67.211 -27.983  53.819
1.910000e+01 -27.787 -23.268  -9.091  66.549  -9.096  66.425 -27.935  53.690
1.915000e+01 -27.643 -22.200  -9.095  65.763  -9.100  65.629 -27.822  53.020
1.920000e+01 -27.530 -23.268  -9.099  64.968  -9.105  64.848 -27.784  51.399
1.925000e+01 -27.423 -23.411  -9.104  64.178  -9.109  64.066 -27.680  52.881
1.930000e+01 -27.318 -23.484  -9.108  63.392  -9.113  63.272 -27.633  49.658
1.935000e+01 -27.190 -24.666  -9.112  62.603  -9.118  62.488 -27.546  51.291
1.940000e+01 -27.088 -24.105  -9.116  61.817  -9.122  61.697 -27.467  48.573
1.945000e+01 -26.962 -24.851  -9.120  61.041  -9.126  60.916 -27.381  49.084
1.950000e+01 -26.865 -24.299  -9.124  60.236  -9.130  60.121 -27.272  47.845
1.955000e+01 -26.726 -25.168  -9.129  59.457  -9.134  59.346 -27.200  47.145
1.960000e+01 -26.653 -25.789  -9.134  58.673  -9.139  58.547 -27.100  47.307
1.965000e+01 -26.510 -24.852  -9.139  57.887  -9.143  57.772 -27.022  45.571
1.970000e+01 -26.415 -27.046  -9.143  57.105  -9.148  56.977 -26.938  45.712
1.975000e+01 -26.306 -25.398  -9.148  56.311  -9.153  56.191 -26.869  44.560
1.980000e+01 -26.197 -27.553  -9.152  55.532  -9.157  55.404 -26.799  44.417
1.985000e+01 -26.113 -26.118  -9.156  54.731  -9.162  54.623 -26.724  44.160
1.990000e+01 -25.993 -27.282  -9.160  53.973  -9.166  53.828 -26.653  42.578
1.995000e+01 -25.922 -27.429  -9.164  53.156  -9.170  53.043 -26.604  42.901
    20 -25.801 -27.391  -9.168  52.399  -9.174  52.264 -26.514  41.272
2.005000e+01 -25.728 -29.125  -9.173  51.598  -9.178  51.448 -26.474  41.778
2.010000e+01 -25.628 -27.426  -9.178  50.830  -9.183  50.669 -26.380  40.808
2.015000e+01 -25.544 -29.916  -9.182  50.033  -9.187  49.866 -26.346  40.378
2.020000e+01 -25.479 -27.887  -9.186  49.241  -9.191  49.071 -26.247  40.355
2.025000e+01 -25.372 -29.667  -9.192  48.449  -9.196  48.297 -26.206  38.757
2.030000e+01 -25.332 -29.352  -9.195  47.650  -9.200  47.494 -26.132  39.687
2.035000e+01 -25.216 -29.226  -9.199  46.893  -9.205  46.717 -26.070  37.629
2.040000e+01 -25.171 -31.296  -9.203  46.087  -9.209  45.928 -26.033  38.631
2.045000e+01 -25.080 -29.061  -9.209  45.313  -9.214  45.145 -25.943  37.011
2.050000e+01 -25.015 -32.272  -9.213  44.493  -9.218  44.338 -25.910  36.845
2.055000e+01 -24.960 -29.168  -9.218  43.706  -9.224  43.556 -25.810  36.522
2.060000e+01 -24.862 -32.626  -9.222  42.921  -9.228  42.786 -25.776  35.236
2.065000e+01 -24.846 -30.537  -9.227  42.133  -9.232  41.982 -25.699  36.346
2.070000e+01 -24.722 -32.030  -9.231  41.366  -9.236  41.227 -25.652  34.006
2.075000e+01 -24.723 -32.027  -9.235  40.553  -9.240  40.405 -25.611  35.419
2.080000e+01 -24.593 -31.574  -9.239  39.781  -9.244  39.640 -25.534  33.585
2.085000e+01 -24.586 -33.804  -9.243  38.969  -9.248  38.829 -25.509  33.754
2.090000e+01 -24.480 -31.323  -9.248  38.227  -9.253  38.055 -25.401  33.602
2.095000e+01 -24.445 -34.642  -9.252  37.416  -9.257  37.249 -25.381  32.154
    21 -24.375 -31.504  -9.256  36.642  -9.261  36.473 -25.304  33.483
2.105000e+01 -24.297 -34.974  -9.259  35.844  -9.265  35.674 -25.273  31.144
2.110000e+01 -24.272 -33.083  -9.264  35.057  -9.269  34.867 -25.208  33.004
2.115000e+01 -24.168 -34.357  -9.268  34.285  -9.273  34.112 -25.136  30.314
2.120000e+01 -24.149 -34.278  -9.272  33.463  -9.277  33.298 -25.092  31.721
2.125000e+01 -24.041 -34.207  -9.278  32.665  -9.282  32.510 -24.979  30.405
2.130000e+01 -24.026 -35.701  -9.283  31.850  -9.286  31.686 -24.948  29.643
2.135000e+01 -23.924 -34.125  -9.288  31.079  -9.290  30.922 -24.849  30.085
2.140000e+01 -23.891 -36.330  -9.292  30.266  -9.294  30.122 -24.821  28.439
2.145000e+01 -23.821 -34.678  -9.297  29.488  -9.298  29.359 -24.743  29.493
2.150000e+01 -23.762 -36.612  -9.301  28.681  -9.303  28.538 -24.708  27.747
2.155000e+01 -23.714 -35.967  -9.306  27.896  -9.307  27.751 -24.640  28.908
2.160000e+01 -23.647 -36.427  -9.310  27.122  -9.313  26.942 -24.580  27.330
2.165000e+01 -23.607 -36.582  -9.314  26.327  -9.317  26.149 -24.532  27.599
2.170000e+01 -23.537 -36.637  -9.319  25.523  -9.322  25.348 -24.452  27.400
2.175000e+01 -23.503 -37.132  -9.323  24.753  -9.326  24.571 -24.408  26.614
2.180000e+01 -23.440 -37.336  -9.328  23.929  -9.331  23.734 -24.342  27.100
2.185000e+01 -23.396 -37.756  -9.333  23.148  -9.336  22.941 -24.303  26.094
2.190000e+01 -23.329 -38.002  -9.338  22.353  -9.341  22.125 -24.252  26.129
2.195000e+01 -23.291 -38.334  -9.342  21.556  -9.346  21.338 -24.221  25.541
    22 -23.233 -38.402  -9.347  20.759  -9.351  20.533 -24.162  25.399
2.205000e+01 -23.198 -38.699  -9.352  19.976  -9.357  19.744 -24.117  25.636
2.210000e+01 -23.149 -38.670  -9.357  19.164  -9.362  18.950 -24.055  24.616
2.215000e+01 -23.124 -39.628  -9.362  18.353  -9.368  18.127 -24.014  25.247
2.220000e+01 -23.071 -38.718  -9.367  17.561  -9.374  17.339 -23.931  24.360
2.225000e+01 -23.023 -40.566  -9.372  16.734  -9.380  16.532 -23.907  23.655
2.230000e+01 -22.985 -39.149  -9.377  15.947  -9.385  15.747 -23.841  24.357
2.235000e+01 -22.922 -40.929  -9.382  15.129  -9.391  14.936 -23.791  23.228
2.240000e+01 -22.902 -39.677  -9.388  14.316  -9.397  14.141 -23.738  24.375
2.245000e+01 -22.823 -41.238  -9.393  13.521  -9.402  13.332 -23.689  22.242
2.250000e+01 -22.830 -40.713  -9.399  12.697  -9.409  12.519 -23.644  24.114
2.255000e+01 -22.737 -40.842  -9.405  11.903  -9.415  11.732 -23.566  22.151
2.260000e+01 -22.741 -42.004  -9.410  11.091  -9.421  10.915 -23.574  23.105
2.265000e+01 -22.656 -40.758  -9.415  10.316  -9.428  10.099 -23.486  22.628
2.270000e+01 -22.638 -43.153  -9.421   9.503  -9.434   9.290 -23.480  21.834
2.275000e+01 -22.570 -40.950  -9.426   8.714  -9.440   8.516 -23.401  22.300
2.280000e+01 -22.525 -43.560  -9.431   7.885  -9.445   7.707 -23.383  20.780
2.285000e+01 -22.484 -41.640  -9.437   7.087  -9.450   6.924 -23.302  22.178
2.290000e+01 -22.409 -43.650  -9.443   6.272  -9.454   6.118 -23.266  19.946
2.295000e+01 -22.397 -42.831  -9.449   5.464  -9.459   5.321 -23.225  21.413
    23 -22.314 -43.243  -9.454   4.671  -9.464   4.517 -23.164  19.989
2.305000e+01 -22.306 -44.069  -9.460   3.866  -9.470   3.698 -23.141  20.207
2.310000e+01 -22.244 -43.018  -9.465   3.071  -9.475   2.906 -23.077  20.089
2.315000e+01 -22.223 -44.710  -9.470   2.235  -9.481   2.097 -23.041  19.414
2.320000e+01 -22.176 -43.547  -9.476   1.441  -9.487   1.302 -22.977  20.013
2.325000e+01 -22.136 -45.167  -9.481   0.650  -9.492   0.496 -22.932  18.606
2.330000e+01 -22.110 -44.307  -9.486  -0.175  -9.497  -0.304 -22.878  19.673
2.335000e+01 -22.050 -44.835  -9.492  -0.971  -9.502  -1.099 -22.807  18.407
2.340000e+01 -22.032 -44.945  -9.497  -1.791  -9.507  -1.904 -22.767  18.963
2.345000e+01 -21.979 -44.602  -9.504  -2.601  -9.512  -2.728 -22.696  18.767
2.350000e+01 -21.948 -45.953  -9.510  -3.410  -9.518  -3.530 -22.672  18.029
2.355000e+01 -21.899 -44.682  -9.516  -4.205  -9.524  -4.349 -22.611  19.030
2.360000e+01 -21.854 -46.435  -9.521  -5.013  -9.530  -5.143 -22.578  17.302
2.365000e+01 -21.819 -45.305  -9.527  -5.830  -9.535  -5.985 -22.528  18.310
2.370000e+01 -21.754 -46.138  -9.533  -6.642  -9.542  -6.788 -22.479  16.876
2.375000e+01 -21.734 -46.099  -9.539  -7.454  -9.547  -7.584 -22.432  17.585
2.380000e+01 -21.681 -45.766  -9.545  -8.251  -9.553  -8.374 -22.367  17.217
2.385000e+01 -21.659 -46.611  -9.550  -9.069  -9.559  -9.195 -22.336  16.717
2.390000e+01 -21.622 -45.806  -9.556  -9.882  -9.565 -10.036 -22.284  17.202
2.395000e+01 -21.585 -47.167  -9.562 -10.675  -9.570 -10.799 -22.249  16.277
    24 -21.558 -46.645  -9.568 -11.510  -9.576 -11.594 -22.213  16.740
2.405000e+01 -21.510 -47.252  -9.574 -12.293  -9.582 -12.418 -22.172  16.332
2.410000e+01 -21.488 -47.436  -9.580 -13.122  -9.588 -13.256 -22.133  15.962
2.415000e+01 -21.440 -47.143  -9.586 -13.906  -9.593 -14.033 -22.091  16.133
2.420000e+01 -21.424 -48.137  -9.592 -14.744  -9.600 -14.873 -22.052  15.645
2.425000e+01 -21.390 -47.061  -9.598 -15.518  -9.606 -15.627 -22.008  16.210
2.430000e+01 -21.360 -48.596  -9.604 -16.334  -9.610 -16.447 -21.966  15.557
2.435000e+01 -21.349 -47.435  -9.611 -17.127  -9.616 -17.223 -21.934  16.193
2.440000e+01 -21.292 -48.389  -9.616 -17.955  -9.622 -18.050 -21.873  15.588
2.445000e+01 -21.282 -48.323  -9.621 -18.733  -9.628 -18.846 -21.838  15.229
2.450000e+01 -21.231 -48.259  -9.627 -19.541  -9.632 -19.672 -21.776  15.645
2.455000e+01 -21.216 -48.778  -9.634 -20.350  -9.639 -20.481 -21.732  14.538
2.460000e+01 -21.158 -47.996  -9.638 -21.133  -9.643 -21.256 -21.686  15.588
2.465000e+01 -21.133 -49.300  -9.644 -21.960  -9.649 -22.104 -21.638  14.128
2.470000e+01 -21.090 -48.291  -9.650 -22.731  -9.654 -22.881 -21.603  15.611
2.475000e+01 -21.039 -49.650  -9.656 -23.586  -9.660 -23.704 -21.535  13.844
2.480000e+01 -21.002 -48.820  -9.661 -24.370  -9.666 -24.490 -21.511  14.750
2.485000e+01 -20.941 -49.315  -9.667 -25.194  -9.673 -25.321 -21.421  14.015
2.490000e+01 -20.911 -49.657  -9.674 -25.987  -9.678 -26.119 -21.394  13.477
2.495000e+01 -20.869 -49.158  -9.680 -26.806  -9.685 -26.918 -21.341  14.370
    25 -20.824 -50.151  -9.686 -27.600  -9.690 -27.714 -21.317  12.825
