! Device: ADRF5703
! Frequency: 9kHz – 20 GHz
! Ports:
! ATTIN  = Port 1
! ATTOUT = Port 2
! Attenuation bit: 30
! Attenuation state: 7.5dB
! VDD = VDD3
! Temperature = 3V_V
! Data: Data was collected using a calibrated network analyzer.
! The reference plane is the package pins of ADRF5703.
! Note: Analog Devices supplies this data as a sample of measured data for this product.
! Your particular data for this product may vary.
! Analog Devices reserves the right to change this data at anytime
# GHZ S DB R 50
5.000000e-02 -28.696 -11.547  -8.017  -1.126  -7.987  -1.149 -26.260  -7.096
1.000000e-01 -28.540  -0.743  -8.013  -1.848  -7.981  -1.858 -26.036  -1.940
1.500000e-01 -28.508  -4.317  -8.014  -2.491  -7.981  -2.506 -26.028  -4.463
2.000000e-01 -28.439   0.329  -8.015  -3.305  -7.980  -3.328 -25.925  -0.281
2.500000e-01 -28.392  -1.963  -8.018  -4.098  -7.983  -4.121 -25.868  -4.302
3.000000e-01 -28.361   0.022  -8.020  -4.891  -7.986  -4.924 -25.932  -3.085
3.500000e-01 -28.299  -0.664  -8.023  -5.699  -7.990  -5.729 -25.884  -2.410
4.000000e-01 -28.254   0.193  -8.026  -6.488  -7.994  -6.531 -25.841  -3.785
4.500000e-01 -28.201  -0.762  -8.029  -7.281  -7.998  -7.320 -25.891  -5.237
5.000000e-01 -28.169   0.272  -8.033  -8.041  -8.001  -8.085 -25.888  -3.407
5.500000e-01 -28.115  -0.549  -8.038  -8.865  -8.005  -8.893 -25.825  -5.200
6.000000e-01 -28.089   0.075  -8.042  -9.643  -8.009  -9.678 -25.893  -5.909
6.500000e-01 -28.026  -0.622  -8.046 -10.431  -8.013 -10.460 -25.874  -4.800
7.000000e-01 -27.990  -0.014  -8.049 -11.210  -8.017 -11.248 -25.829  -5.492
7.500000e-01 -27.948  -1.024  -8.052 -11.971  -8.020 -12.016 -25.870  -7.203
8.000000e-01 -27.918  -0.151  -8.055 -12.765  -8.024 -12.792 -25.889  -5.360
8.500000e-01 -27.861  -0.670  -8.058 -13.556  -8.028 -13.592 -25.810  -6.431
9.000000e-01 -27.841  -0.911  -8.061 -14.317  -8.032 -14.389 -25.850  -8.159
9.500000e-01 -27.800  -0.674  -8.065 -15.106  -8.036 -15.167 -25.848  -6.583
     1 -27.769  -1.050  -8.070 -15.894  -8.042 -15.930 -25.770  -7.119
1.050000e+00 -27.722  -1.141  -8.075 -16.655  -8.045 -16.692 -25.757  -8.848
1.100000e+00 -27.702  -1.577  -8.079 -17.419  -8.048 -17.468 -25.770  -8.053
1.150000e+00 -27.649  -1.873  -8.083 -18.173  -8.052 -18.227 -25.670  -8.018
1.200000e+00 -27.617  -2.015  -8.086 -18.956  -8.055 -19.008 -25.655 -10.125
1.250000e+00 -27.563  -2.294  -8.089 -19.745  -8.059 -19.803 -25.648  -9.539
1.300000e+00 -27.539  -2.229  -8.093 -20.511  -8.064 -20.575 -25.582  -9.306
1.350000e+00 -27.484  -2.673  -8.098 -21.282  -8.068 -21.355 -25.535 -11.401
1.400000e+00 -27.452  -2.862  -8.100 -22.039  -8.072 -22.127 -25.554 -11.316
1.450000e+00 -27.405  -3.331  -8.103 -22.783  -8.074 -22.880 -25.483 -11.162
1.500000e+00 -27.384  -3.551  -8.106 -23.562  -8.077 -23.616 -25.461 -13.095
1.550000e+00 -27.331  -3.725  -8.108 -24.360  -8.079 -24.419 -25.481 -13.078
1.600000e+00 -27.311  -4.349  -8.111 -25.133  -8.082 -25.207 -25.447 -12.885
1.650000e+00 -27.279  -4.607  -8.115 -25.894  -8.086 -25.976 -25.419 -14.559
1.700000e+00 -27.258  -4.744  -8.120 -26.668  -8.091 -26.741 -25.466 -15.290
1.750000e+00 -27.209  -5.231  -8.123 -27.436  -8.096 -27.513 -25.434 -14.241
1.800000e+00 -27.199  -5.985  -8.126 -28.184  -8.100 -28.259 -25.410 -16.359
1.850000e+00 -27.150  -5.983  -8.129 -28.938  -8.102 -29.009 -25.440 -16.817
1.900000e+00 -27.131  -6.855  -8.132 -29.713  -8.104 -29.763 -25.442 -16.512
1.950000e+00 -27.090  -7.090  -8.135 -30.492  -8.108 -30.552 -25.397 -17.363
     2 -27.070  -7.286  -8.138 -31.260  -8.110 -31.331 -25.434 -18.450
2.050000e+00 -27.023  -8.148  -8.142 -32.025  -8.115 -32.106 -25.416 -17.921
2.100000e+00 -26.999  -8.311  -8.145 -32.789  -8.119 -32.872 -25.359 -18.707
2.150000e+00 -26.947  -9.056  -8.148 -33.548  -8.123 -33.628 -25.359 -20.304
2.200000e+00 -26.916  -9.536  -8.150 -34.313  -8.125 -34.397 -25.342 -19.549
2.250000e+00 -26.874  -9.666  -8.153 -35.076  -8.128 -35.145 -25.273 -20.149
2.300000e+00 -26.859 -10.778  -8.157 -35.860  -8.131 -35.914 -25.278 -22.130
2.350000e+00 -26.836 -10.550  -8.160 -36.646  -8.135 -36.691 -25.277 -21.042
2.400000e+00 -26.820 -11.627  -8.165 -37.419  -8.138 -37.456 -25.212 -22.150
2.450000e+00 -26.804 -12.065  -8.171 -38.184  -8.143 -38.214 -25.207 -23.821
2.500000e+00 -26.790 -12.581  -8.176 -38.948  -8.147 -38.983 -25.212 -23.530
2.550000e+00 -26.767 -13.327  -8.180 -39.706  -8.152 -39.732 -25.155 -24.128
2.600000e+00 -26.759 -13.623  -8.185 -40.454  -8.155 -40.487 -25.158 -25.583
2.650000e+00 -26.745 -14.170  -8.190 -41.223  -8.159 -41.242 -25.187 -25.975
2.700000e+00 -26.735 -14.911  -8.194 -41.975  -8.163 -42.010 -25.150 -26.018
2.750000e+00 -26.736 -15.509  -8.197 -42.718  -8.166 -42.757 -25.163 -28.070
2.800000e+00 -26.733 -16.097  -8.201 -43.478  -8.169 -43.523 -25.202 -28.052
2.850000e+00 -26.720 -16.420  -8.205 -44.234  -8.172 -44.267 -25.184 -27.888
2.900000e+00 -26.729 -17.584  -8.208 -44.993  -8.175 -45.037 -25.194 -29.953
2.950000e+00 -26.740 -17.499  -8.211 -45.740  -8.178 -45.794 -25.261 -29.737
     3 -26.739 -18.053  -8.214 -46.487  -8.181 -46.569 -25.243 -29.535
3.050000e+00 -26.742 -18.688  -8.217 -47.237  -8.185 -47.319 -25.246 -31.366
3.100000e+00 -26.753 -19.266  -8.219 -47.989  -8.187 -48.081 -25.292 -31.555
3.150000e+00 -26.762 -19.576  -8.222 -48.748  -8.190 -48.828 -25.279 -31.144
3.200000e+00 -26.756 -19.974  -8.225 -49.498  -8.193 -49.598 -25.244 -32.303
3.250000e+00 -26.766 -20.715  -8.227 -50.251  -8.195 -50.355 -25.286 -33.105
3.300000e+00 -26.776 -21.139  -8.229 -50.999  -8.198 -51.135 -25.260 -32.757
3.350000e+00 -26.783 -21.422  -8.233 -51.747  -8.201 -51.901 -25.224 -34.131
3.400000e+00 -26.786 -22.187  -8.235 -52.513  -8.203 -52.661 -25.235 -35.292
3.450000e+00 -26.801 -22.543  -8.238 -53.266  -8.206 -53.411 -25.225 -34.704
3.500000e+00 -26.804 -23.180  -8.241 -54.023  -8.209 -54.174 -25.168 -35.956
3.550000e+00 -26.812 -23.724  -8.243 -54.778  -8.211 -54.928 -25.199 -37.531
3.600000e+00 -26.835 -24.538  -8.245 -55.548  -8.213 -55.698 -25.199 -36.904
3.650000e+00 -26.852 -24.903  -8.248 -56.300  -8.216 -56.459 -25.174 -38.237
3.700000e+00 -26.866 -25.668  -8.250 -57.061  -8.219 -57.221 -25.207 -39.756
3.750000e+00 -26.904 -26.627  -8.253 -57.816  -8.222 -57.983 -25.255 -39.468
3.800000e+00 -26.924 -26.782  -8.255 -58.579  -8.226 -58.740 -25.244 -39.934
3.850000e+00 -26.960 -27.483  -8.257 -59.334  -8.229 -59.500 -25.310 -41.550
3.900000e+00 -26.985 -27.543  -8.260 -60.095  -8.232 -60.257 -25.366 -41.117
3.950000e+00 -27.031 -28.071  -8.263 -60.851  -8.236 -61.020 -25.382 -41.550
     4 -27.059 -28.494  -8.265 -61.623  -8.239 -61.778 -25.428 -43.080
4.050000e+00 -27.096 -28.600  -8.269 -62.383  -8.243 -62.551 -25.492 -42.482
4.100000e+00 -27.119 -29.416  -8.272 -63.140  -8.247 -63.287 -25.476 -42.864
4.150000e+00 -27.145 -29.442  -8.275 -63.890  -8.250 -64.048 -25.505 -44.255
4.200000e+00 -27.169 -30.046  -8.278 -64.650  -8.253 -64.801 -25.553 -44.326
4.250000e+00 -27.207 -30.126  -8.282 -65.404  -8.256 -65.558 -25.520 -43.838
4.300000e+00 -27.230 -30.094  -8.284 -66.154  -8.258 -66.297 -25.514 -45.991
4.350000e+00 -27.270 -30.934  -8.287 -66.922  -8.260 -67.066 -25.555 -46.139
4.400000e+00 -27.299 -31.020  -8.290 -67.667  -8.262 -67.796 -25.519 -45.416
4.450000e+00 -27.333 -31.585  -8.293 -68.418  -8.263 -68.561 -25.500 -47.496
4.500000e+00 -27.339 -32.147  -8.296 -69.180  -8.265 -69.321 -25.551 -47.758
4.550000e+00 -27.380 -32.521  -8.299 -69.951  -8.267 -70.097 -25.546 -47.435
4.600000e+00 -27.405 -32.941  -8.302 -70.708  -8.270 -70.847 -25.545 -49.123
4.650000e+00 -27.439 -32.954  -8.305 -71.468  -8.272 -71.619 -25.607 -49.449
4.700000e+00 -27.469 -33.633  -8.309 -72.219  -8.275 -72.362 -25.630 -49.317
4.750000e+00 -27.510 -33.919  -8.312 -72.978  -8.277 -73.121 -25.642 -50.340
4.800000e+00 -27.526 -33.677  -8.315 -73.738  -8.280 -73.879 -25.737 -51.288
4.850000e+00 -27.553 -34.626  -8.318 -74.493  -8.283 -74.646 -25.775 -50.578
4.900000e+00 -27.578 -34.227  -8.321 -75.238  -8.285 -75.393 -25.802 -51.622
4.950000e+00 -27.604 -34.828  -8.324 -76.009  -8.288 -76.147 -25.882 -52.977
     5 -27.629 -35.112  -8.326 -76.768  -8.290 -76.881 -25.930 -51.717
5.050000e+00 -27.669 -35.222  -8.328 -77.520  -8.293 -77.630 -25.921 -52.966
5.100000e+00 -27.699 -35.511  -8.331 -78.286  -8.295 -78.404 -25.998 -54.130
5.150000e+00 -27.741 -35.467  -8.333 -79.044  -8.298 -79.168 -26.034 -52.985
5.200000e+00 -27.773 -35.333  -8.335 -79.793  -8.300 -79.910 -26.021 -53.906
5.250000e+00 -27.813 -35.826  -8.338 -80.552  -8.303 -80.666 -26.071 -54.814
5.300000e+00 -27.838 -35.733  -8.341 -81.312  -8.305 -81.421 -26.097 -54.313
5.350000e+00 -27.860 -36.435  -8.343 -82.045  -8.308 -82.180 -26.048 -54.674
5.400000e+00 -27.878 -36.499  -8.345 -82.818  -8.309 -82.955 -26.077 -56.456
5.450000e+00 -27.910 -36.938  -8.348 -83.570  -8.312 -83.716 -26.104 -55.461
5.500000e+00 -27.928 -36.897  -8.351 -84.336  -8.314 -84.485 -26.056 -55.583
5.550000e+00 -27.961 -37.040  -8.352 -85.095  -8.315 -85.246 -26.061 -57.274
5.600000e+00 -27.969 -37.273  -8.355 -85.857  -8.317 -86.007 -26.109 -57.115
5.650000e+00 -27.992 -37.418  -8.358 -86.606  -8.320 -86.752 -26.075 -56.730
5.700000e+00 -27.984 -37.544  -8.360 -87.373  -8.321 -87.522 -26.091 -58.313
5.750000e+00 -27.991 -37.607  -8.363 -88.139  -8.324 -88.298 -26.157 -58.301
5.800000e+00 -27.982 -38.160  -8.366 -88.887  -8.328 -89.060 -26.152 -57.716
5.850000e+00 -27.990 -38.285  -8.369 -89.634  -8.330 -89.819 -26.179 -59.681
5.900000e+00 -27.998 -38.603  -8.371 -90.406  -8.333 -90.580 -26.247 -59.471
5.950000e+00 -27.992 -38.420  -8.374 -91.161  -8.336 -91.325 -26.244 -58.935
     6 -27.991 -38.747  -8.376 -91.917  -8.338 -92.083 -26.261 -60.815
6.050000e+00 -27.994 -39.084  -8.378 -92.683  -8.341 -92.847 -26.330 -60.328
6.100000e+00 -27.985 -38.543  -8.380 -93.447  -8.344 -93.610 -26.329 -59.881
6.150000e+00 -27.985 -39.367  -8.383 -94.203  -8.347 -94.362 -26.319 -60.903
6.200000e+00 -27.989 -39.177  -8.385 -94.963  -8.350 -95.130 -26.368 -61.351
6.250000e+00 -27.989 -39.429  -8.388 -95.727  -8.354 -95.891 -26.348 -60.644
6.300000e+00 -27.989 -40.018  -8.391 -96.475  -8.357 -96.639 -26.306 -61.239
6.350000e+00 -27.987 -39.600  -8.394 -97.241  -8.359 -97.398 -26.331 -62.357
6.400000e+00 -27.988 -40.361  -8.397 -97.996  -8.363 -98.146 -26.311 -60.945
6.450000e+00 -27.966 -39.870  -8.400 -98.749  -8.366 -98.912 -26.263 -61.912
6.500000e+00 -27.963 -40.528  -8.403 -99.509  -8.369 -99.669 -26.293 -63.114
6.550000e+00 -27.957 -40.897  -8.407 -100.265  -8.371 -100.431 -26.292 -61.897
6.600000e+00 -27.954 -40.232  -8.409 -101.012  -8.374 -101.169 -26.248 -63.371
6.650000e+00 -27.935 -41.565  -8.412 -101.766  -8.376 -101.929 -26.278 -64.257
6.700000e+00 -27.948 -41.351  -8.414 -102.532  -8.379 -102.696 -26.308 -63.824
6.750000e+00 -27.936 -41.704  -8.416 -103.281  -8.381 -103.454 -26.278 -64.378
6.800000e+00 -27.935 -42.015  -8.418 -104.020  -8.384 -104.215 -26.317 -65.539
6.850000e+00 -27.938 -42.003  -8.420 -104.789  -8.387 -104.983 -26.352 -65.505
6.900000e+00 -27.928 -42.526  -8.423 -105.538  -8.390 -105.732 -26.340 -65.548
6.950000e+00 -27.935 -42.700  -8.425 -106.307  -8.392 -106.505 -26.352 -66.838
     7 -27.939 -42.975  -8.428 -107.062  -8.396 -107.260 -26.383 -66.663
7.050000e+00 -27.932 -43.377  -8.431 -107.819  -8.398 -108.016 -26.354 -66.508
7.100000e+00 -27.935 -43.439  -8.433 -108.571  -8.400 -108.765 -26.365 -67.642
7.150000e+00 -27.946 -43.881  -8.436 -109.328  -8.403 -109.523 -26.391 -67.049
7.200000e+00 -27.944 -43.914  -8.438 -110.074  -8.404 -110.274 -26.366 -66.773
7.250000e+00 -27.941 -44.419  -8.441 -110.832  -8.406 -111.038 -26.363 -68.423
7.300000e+00 -27.946 -44.962  -8.443 -111.597  -8.409 -111.798 -26.396 -68.012
7.350000e+00 -27.938 -44.946  -8.445 -112.343  -8.412 -112.557 -26.363 -67.971
7.400000e+00 -27.922 -45.680  -8.448 -113.099  -8.414 -113.321 -26.347 -68.984
7.450000e+00 -27.927 -45.658  -8.451 -113.864  -8.417 -114.079 -26.374 -69.377
7.500000e+00 -27.915 -46.153  -8.454 -114.616  -8.419 -114.827 -26.351 -68.876
7.550000e+00 -27.913 -46.333  -8.457 -115.371  -8.421 -115.585 -26.338 -70.461
7.600000e+00 -27.922 -47.117  -8.460 -116.127  -8.424 -116.352 -26.355 -70.782
7.650000e+00 -27.930 -47.015  -8.462 -116.884  -8.427 -117.104 -26.357 -70.902
7.700000e+00 -27.936 -47.886  -8.464 -117.639  -8.430 -117.852 -26.333 -71.830
7.750000e+00 -27.948 -47.945  -8.466 -118.401  -8.433 -118.624 -26.373 -72.729
7.800000e+00 -27.963 -48.670  -8.469 -119.153  -8.436 -119.379 -26.371 -72.519
7.850000e+00 -27.970 -48.754  -8.472 -119.909  -8.439 -120.129 -26.364 -73.439
7.900000e+00 -28.000 -49.201  -8.474 -120.672  -8.442 -120.894 -26.391 -74.669
7.950000e+00 -28.028 -49.663  -8.477 -121.419  -8.445 -121.655 -26.416 -74.089
     8 -28.056 -50.002  -8.479 -122.172  -8.448 -122.406 -26.404 -74.962
8.050000e+00 -28.088 -50.797  -8.481 -122.930  -8.451 -123.168 -26.457 -76.015
8.100000e+00 -28.128 -51.274  -8.484 -123.686  -8.454 -123.924 -26.478 -75.440
8.150000e+00 -28.132 -51.089  -8.486 -124.433  -8.457 -124.675 -26.485 -76.466
8.200000e+00 -28.148 -52.394  -8.489 -125.196  -8.460 -125.433 -26.513 -77.499
8.250000e+00 -28.164 -52.402  -8.492 -125.954  -8.462 -126.191 -26.542 -77.012
8.300000e+00 -28.179 -52.900  -8.495 -126.711  -8.465 -126.943 -26.514 -77.888
8.350000e+00 -28.197 -53.467  -8.497 -127.468  -8.467 -127.701 -26.545 -78.588
8.400000e+00 -28.237 -53.497  -8.500 -128.219  -8.470 -128.448 -26.559 -78.941
8.450000e+00 -28.258 -54.493  -8.502 -128.971  -8.472 -129.203 -26.529 -78.779
8.500000e+00 -28.289 -54.633  -8.505 -129.740  -8.475 -129.975 -26.533 -80.841
8.550000e+00 -28.318 -55.310  -8.507 -130.490  -8.477 -130.729 -26.558 -80.710
8.600000e+00 -28.344 -55.518  -8.509 -131.242  -8.480 -131.488 -26.539 -80.772
8.650000e+00 -28.398 -55.955  -8.512 -132.004  -8.482 -132.241 -26.547 -82.503
8.700000e+00 -28.441 -56.519  -8.515 -132.752  -8.485 -132.997 -26.602 -82.886
8.750000e+00 -28.513 -57.075  -8.518 -133.518  -8.487 -133.764 -26.605 -83.198
8.800000e+00 -28.572 -58.111  -8.520 -134.283  -8.489 -134.524 -26.641 -84.733
8.850000e+00 -28.647 -58.067  -8.522 -135.035  -8.493 -135.277 -26.700 -85.016
8.900000e+00 -28.690 -58.930  -8.525 -135.788  -8.496 -136.038 -26.744 -85.078
8.950000e+00 -28.755 -59.234  -8.527 -136.551  -8.498 -136.802 -26.789 -86.447
     9 -28.799 -59.685  -8.529 -137.305  -8.501 -137.542 -26.888 -86.748
9.050000e+00 -28.848 -60.214  -8.531 -138.071  -8.503 -138.308 -26.920 -87.115
9.100000e+00 -28.875 -60.826  -8.535 -138.817  -8.506 -139.079 -26.967 -88.255
9.150000e+00 -28.946 -61.863  -8.537 -139.572  -8.508 -139.827 -27.028 -89.312
9.200000e+00 -28.989 -61.803  -8.540 -140.342  -8.510 -140.597 -27.055 -88.474
9.250000e+00 -29.061 -62.636  -8.543 -141.096  -8.513 -141.352 -27.062 -90.096
9.300000e+00 -29.111 -62.953  -8.545 -141.837  -8.516 -142.110 -27.128 -90.612
9.350000e+00 -29.195 -63.288  -8.547 -142.601  -8.519 -142.870 -27.139 -90.761
9.400000e+00 -29.230 -63.821  -8.550 -143.354  -8.523 -143.647 -27.129 -91.668
9.450000e+00 -29.295 -63.673  -8.552 -144.109  -8.526 -144.398 -27.169 -93.025
9.500000e+00 -29.356 -64.560  -8.555 -144.871  -8.529 -145.168 -27.172 -92.137
9.550000e+00 -29.435 -64.315  -8.557 -145.631  -8.532 -145.909 -27.156 -93.710
9.600000e+00 -29.519 -65.451  -8.560 -146.393  -8.534 -146.669 -27.217 -94.793
9.650000e+00 -29.630 -65.990  -8.563 -147.153  -8.537 -147.434 -27.271 -94.569
9.700000e+00 -29.721 -66.077  -8.566 -147.902  -8.539 -148.208 -27.283 -95.411
9.750000e+00 -29.830 -67.267  -8.569 -148.674  -8.542 -148.960 -27.366 -97.156
9.800000e+00 -29.915 -66.954  -8.572 -149.439  -8.545 -149.734 -27.454 -96.910
9.850000e+00 -30.001 -67.650  -8.576 -150.178  -8.547 -150.480 -27.501 -97.657
9.900000e+00 -30.075 -68.774  -8.579 -150.936  -8.550 -151.249 -27.584 -99.052
9.950000e+00 -30.166 -68.278  -8.582 -151.694  -8.553 -152.006 -27.692 -99.753
    10 -30.243 -69.863  -8.585 -152.446  -8.556 -152.764 -27.729 -99.839
1.005000e+01 -30.343 -69.438  -8.588 -153.203  -8.560 -153.527 -27.800 -101.559
1.010000e+01 -30.440 -70.488  -8.591 -153.967  -8.563 -154.292 -27.872 -101.834
1.015000e+01 -30.541 -70.612  -8.593 -154.714  -8.567 -155.024 -27.887 -101.835
1.020000e+01 -30.618 -70.503  -8.595 -155.487  -8.569 -155.781 -27.931 -104.131
1.025000e+01 -30.706 -71.898  -8.598 -156.242  -8.572 -156.542 -27.999 -103.476
1.030000e+01 -30.803 -71.084  -8.601 -157.011  -8.574 -157.290 -27.999 -103.699
1.035000e+01 -30.889 -71.408  -8.603 -157.768  -8.576 -158.047 -28.030 -105.238
1.040000e+01 -30.989 -72.010  -8.606 -158.533  -8.579 -158.817 -28.104 -105.466
1.045000e+01 -31.122 -72.163  -8.609 -159.292  -8.582 -159.586 -28.130 -105.232
1.050000e+01 -31.239 -72.369  -8.612 -160.052  -8.585 -160.339 -28.158 -106.396
1.055000e+01 -31.343 -72.527  -8.616 -160.805  -8.588 -161.098 -28.253 -106.907
1.060000e+01 -31.462 -73.339  -8.619 -161.584  -8.592 -161.860 -28.301 -107.098
1.065000e+01 -31.585 -73.946  -8.623 -162.331  -8.595 -162.626 -28.363 -108.097
1.070000e+01 -31.707 -73.539  -8.627 -163.080  -8.598 -163.392 -28.483 -109.863
1.075000e+01 -31.820 -74.316  -8.630 -163.838  -8.601 -164.143 -28.570 -108.873
1.080000e+01 -31.967 -74.491  -8.633 -164.593  -8.603 -164.899 -28.624 -111.249
1.085000e+01 -32.093 -74.960  -8.635 -165.346  -8.606 -165.665 -28.727 -112.199
1.090000e+01 -32.230 -75.111  -8.637 -166.106  -8.609 -166.428 -28.804 -112.443
1.095000e+01 -32.367 -75.413  -8.639 -166.859  -8.613 -167.190 -28.823 -113.164
    11 -32.504 -74.854  -8.643 -167.639  -8.617 -167.962 -28.930 -115.007
1.105000e+01 -32.647 -75.574  -8.646 -168.416  -8.621 -168.727 -29.011 -114.626
1.110000e+01 -32.775 -74.714  -8.650 -169.162  -8.623 -169.464 -29.068 -115.507
1.115000e+01 -32.917 -75.104  -8.653 -169.923  -8.626 -170.210 -29.172 -116.719
1.120000e+01 -33.080 -75.318  -8.656 -170.671  -8.628 -170.979 -29.265 -116.114
1.125000e+01 -33.228 -74.511  -8.659 -171.434  -8.631 -171.749 -29.317 -116.864
1.130000e+01 -33.424 -76.108  -8.663 -172.216  -8.634 -172.537 -29.420 -118.315
1.135000e+01 -33.602 -75.365  -8.666 -172.987  -8.639 -173.297 -29.538 -117.612
1.140000e+01 -33.787 -74.961  -8.670 -173.717  -8.643 -174.045 -29.580 -118.114
1.145000e+01 -33.951 -76.352  -8.673 -174.478  -8.647 -174.793 -29.679 -119.085
1.150000e+01 -34.087 -74.393  -8.676 -175.246  -8.650 -175.564 -29.812 -119.993
1.155000e+01 -34.244 -77.550  -8.678 -176.005  -8.653 -176.328 -29.833 -118.650
1.160000e+01 -34.392 -74.713  -8.682 -176.757  -8.656 -177.094 -29.923 -121.923
1.165000e+01 -34.530 -76.179  -8.686 -177.543  -8.660 -177.859 -30.019 -121.589
1.170000e+01 -34.700 -77.360  -8.689 -178.279  -8.664 -178.626 -30.058 -121.459
1.175000e+01 -34.880 -75.187  -8.693 -179.061  -8.668 -179.400 -30.093 -124.958
1.180000e+01 -35.059 -76.413  -8.697 -179.805  -8.672 179.855 -30.195 -123.849
1.185000e+01 -35.203 -74.150  -8.700 179.433  -8.676 179.104 -30.227 -125.599
1.190000e+01 -35.362 -74.725  -8.702 178.678  -8.679 178.330 -30.273 -126.716
1.195000e+01 -35.501 -74.844  -8.705 177.924  -8.683 177.581 -30.407 -127.654
    12 -35.665 -72.069  -8.707 177.173  -8.686 176.829 -30.483 -127.631
1.205000e+01 -35.844 -74.238  -8.710 176.400  -8.689 176.071 -30.598 -128.187
1.210000e+01 -36.077 -71.245  -8.712 175.628  -8.692 175.296 -30.775 -130.016
1.215000e+01 -36.364 -72.330  -8.716 174.882  -8.695 174.548 -30.905 -128.270
1.220000e+01 -36.639 -71.007  -8.718 174.126  -8.697 173.804 -31.018 -130.526
1.225000e+01 -36.936 -69.182  -8.722 173.356  -8.700 173.021 -31.209 -131.621
1.230000e+01 -37.199 -70.825  -8.725 172.595  -8.703 172.254 -31.335 -129.723
1.235000e+01 -37.444 -67.514  -8.729 171.847  -8.706 171.471 -31.434 -132.673
1.240000e+01 -37.686 -68.713  -8.733 171.061  -8.710 170.699 -31.617 -132.678
1.245000e+01 -37.935 -67.458  -8.736 170.328  -8.715 169.937 -31.727 -132.734
1.250000e+01 -38.203 -66.868  -8.739 169.531  -8.718 169.185 -31.758 -134.922
1.255000e+01 -38.417 -68.819  -8.742 168.789  -8.721 168.406 -31.893 -136.708
1.260000e+01 -38.668 -67.219  -8.745 168.011  -8.724 167.671 -31.929 -136.498
1.265000e+01 -38.830 -67.766  -8.747 167.257  -8.725 166.906 -31.926 -137.776
1.270000e+01 -39.009 -65.246  -8.750 166.476  -8.727 166.154 -32.002 -140.633
1.275000e+01 -39.109 -63.555  -8.752 165.728  -8.730 165.375 -32.059 -139.458
1.280000e+01 -39.222 -63.083  -8.756 164.954  -8.733 164.612 -32.036 -141.041
1.285000e+01 -39.330 -61.262  -8.758 164.191  -8.737 163.826 -32.124 -143.313
1.290000e+01 -39.518 -61.147  -8.761 163.425  -8.740 163.069 -32.226 -142.123
1.295000e+01 -39.566 -58.706  -8.762 162.678  -8.744 162.316 -32.262 -143.252
    13 -39.775 -59.324  -8.766 161.918  -8.747 161.554 -32.447 -144.900
1.305000e+01 -39.932 -55.958  -8.769 161.143  -8.750 160.795 -32.633 -143.745
1.310000e+01 -40.146 -49.904  -8.772 160.406  -8.753 160.056 -32.768 -144.230
1.315000e+01 -40.239 -48.778  -8.774 159.628  -8.756 159.280 -32.991 -147.571
1.320000e+01 -40.462 -43.735  -8.778 158.876  -8.758 158.532 -33.215 -146.141
1.325000e+01 -40.706 -45.324  -8.780 158.086  -8.760 157.767 -33.332 -147.619
1.330000e+01 -40.859 -38.440  -8.783 157.336  -8.762 156.992 -33.549 -150.109
1.335000e+01 -41.170 -41.847  -8.786 156.544  -8.766 156.205 -33.716 -149.757
1.340000e+01 -41.508 -38.043  -8.790 155.793  -8.769 155.430 -33.776 -151.666
1.345000e+01 -41.851 -33.291  -8.794 154.981  -8.773 154.664 -33.894 -154.895
1.350000e+01 -42.027 -32.967  -8.797 154.249  -8.777 153.897 -34.034 -154.950
1.355000e+01 -42.291 -27.603  -8.800 153.503  -8.781 153.134 -33.996 -155.948
1.360000e+01 -42.325 -24.996  -8.802 152.748  -8.784 152.359 -34.043 -159.331
1.365000e+01 -42.326 -23.175  -8.804 151.983  -8.788 151.611 -34.126 -160.607
1.370000e+01 -42.237 -21.357  -8.804 151.231  -8.791 150.834 -34.062 -158.926
1.375000e+01 -42.303 -22.369  -8.806 150.437  -8.794 150.065 -34.063 -163.498
1.380000e+01 -42.177 -18.378  -8.808 149.691  -8.797 149.335 -34.146 -162.230
1.385000e+01 -42.167 -17.457  -8.811 148.904  -8.798 148.563 -34.160 -162.336
1.390000e+01 -42.010 -17.513  -8.814 148.146  -8.801 147.799 -34.206 -165.012
1.395000e+01 -41.853 -10.014  -8.818 147.388  -8.803 147.028 -34.368 -164.987
    14 -41.669 -15.930  -8.821 146.620  -8.806 146.261 -34.431 -165.888
1.405000e+01 -41.509  -4.101  -8.825 145.832  -8.809 145.470 -34.515 -168.312
1.410000e+01 -41.366  -8.946  -8.827 145.081  -8.813 144.713 -34.679 -170.216
1.415000e+01 -41.206  -4.083  -8.831 144.312  -8.816 143.933 -34.735 -171.023
1.420000e+01 -41.307  -4.701  -8.834 143.537  -8.820 143.157 -34.810 -173.123
1.425000e+01 -41.060  -0.078  -8.837 142.773  -8.824 142.395 -34.937 -176.257
1.430000e+01 -41.080   0.184  -8.839 141.981  -8.828 141.620 -34.961 -175.435
1.435000e+01 -40.874   1.366  -8.842 141.249  -8.831 140.840 -34.991 -179.346
1.440000e+01 -40.852   6.573  -8.844 140.507  -8.836 140.109 -35.098 -179.568
1.445000e+01 -40.526   5.080  -8.846 139.715  -8.838 139.319 -35.109 -178.374
1.450000e+01 -40.539   5.349  -8.848 138.945  -8.840 138.559 -35.063 178.173
1.455000e+01 -40.412   7.507  -8.850 138.180  -8.842 137.794 -35.158 177.572
1.460000e+01 -40.429   7.589  -8.852 137.377  -8.845 137.037 -35.114 178.475
1.465000e+01 -40.348   6.072  -8.855 136.608  -8.846 136.213 -34.997 176.968
1.470000e+01 -40.425   9.180  -8.859 135.833  -8.850 135.463 -35.030 174.202
1.475000e+01 -40.310   7.326  -8.863 135.063  -8.855 134.693 -35.013 175.973
1.480000e+01 -40.139  13.412  -8.867 134.251  -8.860 133.913 -34.927 174.816
1.485000e+01 -40.038   6.523  -8.870 133.480  -8.864 133.123 -34.926 170.454
1.490000e+01 -39.797  16.581  -8.875 132.717  -8.869 132.387 -34.923 171.513
1.495000e+01 -39.797   9.671  -8.878 131.963  -8.873 131.626 -34.808 167.730
    15 -39.559  15.590  -8.882 131.143  -8.876 130.859 -34.705 166.124
1.505000e+01 -39.726  14.339  -8.885 130.369  -8.880 130.105 -34.647 164.535
1.510000e+01 -39.605  13.382  -8.889 129.605  -8.882 129.351 -34.512 163.455
1.515000e+01 -39.765  20.893  -8.894 128.830  -8.885 128.563 -34.456 162.043
1.520000e+01 -39.568  14.123  -8.900 128.051  -8.889 127.766 -34.426 159.995
1.525000e+01 -39.653  22.997  -8.905 127.263  -8.894 127.003 -34.376 161.130
1.530000e+01 -39.508  16.575  -8.911 126.504  -8.898 126.229 -34.348 157.763
1.535000e+01 -39.509  23.065  -8.916 125.729  -8.902 125.472 -34.352 158.125
1.540000e+01 -39.463  18.704  -8.923 124.978  -8.906 124.699 -34.321 158.639
1.545000e+01 -39.510  21.523  -8.927 124.154  -8.909 123.957 -34.342 157.576
1.550000e+01 -39.606  16.579  -8.933 123.401  -8.913 123.144 -34.387 158.645
1.555000e+01 -39.452  23.291  -8.939 122.624  -8.918 122.373 -34.398 158.030
1.560000e+01 -39.546  13.020  -8.946 121.854  -8.922 121.582 -34.382 155.870
1.565000e+01 -39.276  24.679  -8.951 121.085  -8.926 120.870 -34.429 155.907
1.570000e+01 -39.337  16.231  -8.956 120.336  -8.931 120.070 -34.314 154.033
1.575000e+01 -38.966  22.758  -8.962 119.570  -8.934 119.342 -34.225 153.227
1.580000e+01 -39.057  20.826  -8.966 118.845  -8.936 118.562 -34.171 149.263
1.585000e+01 -38.734  17.372  -8.971 118.044  -8.939 117.790 -34.093 151.042
1.590000e+01 -38.821  24.171  -8.977 117.286  -8.943 117.001 -33.919 147.511
1.595000e+01 -38.549  14.083  -8.984 116.511  -8.946 116.228 -33.850 144.714
    16 -38.610  25.063  -8.990 115.772  -8.950 115.443 -33.771 145.087
1.605000e+01 -38.469  17.366  -8.998 114.990  -8.955 114.685 -33.653 144.139
1.610000e+01 -38.367  24.531  -9.003 114.267  -8.960 113.906 -33.605 143.053
1.615000e+01 -38.328  18.972  -9.009 113.496  -8.964 113.113 -33.599 142.450
1.620000e+01 -38.167  23.030  -9.013 112.735  -8.969 112.353 -33.570 141.356
1.625000e+01 -38.184  20.572  -9.017 112.000  -8.972 111.609 -33.606 140.754
1.630000e+01 -37.975  22.607  -9.019 111.241  -8.974 110.848 -33.635 140.101
1.635000e+01 -38.034  20.776  -9.022 110.472  -8.977 110.058 -33.660 139.853
1.640000e+01 -37.835  21.850  -9.023 109.700  -8.979 109.291 -33.733 137.842
1.645000e+01 -37.792  21.907  -9.025 108.944  -8.982 108.511 -33.797 137.766
1.650000e+01 -37.496  21.559  -9.027 108.181  -8.986 107.712 -33.830 136.162
1.655000e+01 -37.445  21.304  -9.029 107.417  -8.992 106.918 -33.841 134.532
1.660000e+01 -37.116  21.103  -9.032 106.623  -8.996 106.143 -33.900 132.956
1.665000e+01 -37.036  21.401  -9.036 105.861  -9.001 105.389 -33.815 132.122
1.670000e+01 -36.745  19.433  -9.039 105.080  -9.005 104.631 -33.811 129.592
1.675000e+01 -36.706  21.724  -9.044 104.331  -9.008 103.875 -33.768 128.603
1.680000e+01 -36.428  18.448  -9.049 103.547  -9.011 103.076 -33.649 128.673
1.685000e+01 -36.302  23.180  -9.053 102.785  -9.015 102.289 -33.538 123.469
1.690000e+01 -36.090  17.283  -9.057 102.016  -9.019 101.509 -33.508 124.993
1.695000e+01 -35.917  23.944  -9.059 101.273  -9.023 100.746 -33.375 124.027
    17 -35.693  18.335  -9.062 100.497  -9.027  99.977 -33.283 121.563
1.705000e+01 -35.486  21.733  -9.064  99.730  -9.031  99.202 -33.287 120.225
1.710000e+01 -35.353  19.209  -9.066  98.945  -9.034  98.421 -33.242 119.813
1.715000e+01 -35.139  19.328  -9.068  98.171  -9.038  97.624 -33.148 118.094
1.720000e+01 -34.987  21.016  -9.072  97.402  -9.042  96.854 -33.194 115.352
1.725000e+01 -34.793  18.529  -9.075  96.610  -9.046  96.076 -33.161 115.484
1.730000e+01 -34.622  20.009  -9.078  95.811  -9.049  95.296 -33.138 114.397
1.735000e+01 -34.364  19.742  -9.081  95.057  -9.052  94.514 -33.181 110.095
1.740000e+01 -34.141  18.680  -9.084  94.292  -9.056  93.742 -33.169 111.864
1.745000e+01 -33.914  20.178  -9.089  93.475  -9.060  92.946 -33.155 106.605
1.750000e+01 -33.722  18.019  -9.092  92.704  -9.065  92.134 -33.172 106.266
1.755000e+01 -33.508  19.880  -9.096  91.916  -9.070  91.376 -33.186 105.496
1.760000e+01 -33.352  17.745  -9.101  91.154  -9.075  90.623 -33.102 102.654
1.765000e+01 -33.150  17.325  -9.104  90.381  -9.080  89.834 -33.141 102.086
1.770000e+01 -32.991  18.827  -9.107  89.587  -9.083  89.045 -33.068  99.613
1.775000e+01 -32.781  16.407  -9.111  88.812  -9.087  88.278 -32.960  99.574
1.780000e+01 -32.613  18.658  -9.115  88.055  -9.092  87.500 -32.885  96.151
1.785000e+01 -32.442  15.941  -9.119  87.247  -9.097  86.698 -32.775  96.258
1.790000e+01 -32.264  17.079  -9.123  86.484  -9.102  85.931 -32.623  95.335
1.795000e+01 -32.105  15.543  -9.127  85.723  -9.107  85.168 -32.538  91.740
    18 -31.917  14.507  -9.131  84.920  -9.112  84.367 -32.445  92.846
1.805000e+01 -31.774  14.953  -9.136  84.117  -9.116  83.599 -32.308  89.710
1.810000e+01 -31.577  14.058  -9.139  83.359  -9.120  82.831 -32.219  87.105
1.815000e+01 -31.405  14.051  -9.144  82.587  -9.123  82.050 -32.174  86.369
1.820000e+01 -31.222  13.094  -9.149  81.801  -9.127  81.259 -32.013  84.319
1.825000e+01 -31.028  12.395  -9.152  81.012  -9.131  80.494 -31.976  82.206
1.830000e+01 -30.832  12.685  -9.156  80.233  -9.135  79.699 -31.904  79.772
1.835000e+01 -30.655  10.484  -9.161  79.479  -9.140  78.898 -31.797  79.862
1.840000e+01 -30.470  11.689  -9.166  78.671  -9.146  78.117 -31.725  75.152
1.845000e+01 -30.317   9.688  -9.170  77.884  -9.151  77.331 -31.629  76.083
1.850000e+01 -30.142  10.353  -9.173  77.110  -9.156  76.574 -31.512  73.102
1.855000e+01 -30.009   9.486  -9.178  76.361  -9.161  75.806 -31.422  71.828
1.860000e+01 -29.841   9.088  -9.182  75.547  -9.164  75.033 -31.377  71.651
1.865000e+01 -29.704   9.363  -9.186  74.789  -9.167  74.235 -31.241  70.243
1.870000e+01 -29.561   7.508  -9.190  73.988  -9.171  73.443 -31.166  68.837
1.875000e+01 -29.431   8.176  -9.195  73.236  -9.174  72.673 -31.085  67.707
1.880000e+01 -29.316   6.721  -9.199  72.416  -9.178  71.910 -30.907  68.028
1.885000e+01 -29.191   6.886  -9.202  71.648  -9.182  71.090 -30.791  65.782
1.890000e+01 -29.077   6.780  -9.207  70.874  -9.187  70.324 -30.687  65.116
1.895000e+01 -28.949   5.464  -9.211  70.092  -9.191  69.516 -30.539  65.939
    19 -28.823   6.249  -9.215  69.270  -9.196  68.723 -30.420  61.315
1.905000e+01 -28.679   4.908  -9.220  68.539  -9.202  67.917 -30.311  62.387
1.910000e+01 -28.543   4.425  -9.224  67.748  -9.207  67.150 -30.165  59.638
1.915000e+01 -28.430   4.309  -9.229  66.961  -9.211  66.373 -30.013  58.318
1.920000e+01 -28.316   3.018  -9.233  66.177  -9.216  65.582 -29.940  57.836
1.925000e+01 -28.211   3.730  -9.238  65.376  -9.220  64.807 -29.781  56.414
1.930000e+01 -28.119   1.504  -9.243  64.596  -9.224  63.987 -29.666  55.884
1.935000e+01 -28.009   2.032  -9.247  63.821  -9.228  63.218 -29.560  53.119
1.940000e+01 -27.903   0.950  -9.252  63.061  -9.233  62.433 -29.418  53.731
1.945000e+01 -27.772   0.545  -9.256  62.264  -9.238  61.671 -29.276  52.341
1.950000e+01 -27.675   0.769  -9.260  61.484  -9.242  60.862 -29.194  51.322
1.955000e+01 -27.557  -0.295  -9.265  60.696  -9.247  60.082 -29.102  52.638
1.960000e+01 -27.458  -0.069  -9.270  59.910  -9.252  59.276 -29.014  50.140
1.965000e+01 -27.358  -1.523  -9.274  59.122  -9.257  58.493 -28.967  50.219
1.970000e+01 -27.268  -1.560  -9.279  58.355  -9.263  57.707 -28.892  49.541
1.975000e+01 -27.169  -1.734  -9.284  57.567  -9.268  56.945 -28.805  48.099
1.980000e+01 -27.073  -2.434  -9.288  56.786  -9.273  56.168 -28.783  47.967
1.985000e+01 -26.994  -2.277  -9.292  55.969  -9.277  55.374 -28.717  47.903
1.990000e+01 -26.905  -2.882  -9.298  55.225  -9.282  54.589 -28.649  46.910
1.995000e+01 -26.808  -3.548  -9.303  54.408  -9.286  53.783 -28.617  45.182
    20 -26.737  -4.243  -9.307  53.642  -9.291  53.002 -28.529  44.937
2.005000e+01 -26.644  -4.662  -9.312  52.850  -9.295  52.192 -28.409  43.900
2.010000e+01 -26.577  -5.082  -9.316  52.092  -9.300  51.419 -28.306  42.358
2.015000e+01 -26.503  -6.025  -9.321  51.298  -9.304  50.617 -28.203  42.564
2.020000e+01 -26.425  -6.053  -9.325  50.513  -9.308  49.844 -28.064  41.303
2.025000e+01 -26.368  -7.315  -9.329  49.738  -9.313  49.056 -27.959  40.376
2.030000e+01 -26.279  -6.967  -9.333  48.942  -9.318  48.275 -27.856  39.762
2.035000e+01 -26.195  -7.742  -9.337  48.173  -9.323  47.479 -27.734  39.147
2.040000e+01 -26.105  -8.826  -9.342  47.364  -9.328  46.716 -27.659  38.167
2.045000e+01 -26.040  -8.622  -9.346  46.594  -9.333  45.926 -27.587  37.998
2.050000e+01 -25.947  -9.980  -9.351  45.805  -9.337  45.141 -27.509  37.346
2.055000e+01 -25.860  -9.620  -9.356  45.021  -9.341  44.358 -27.465  36.049
2.060000e+01 -25.792 -11.069  -9.361  44.247  -9.346  43.589 -27.401  36.083
2.065000e+01 -25.707 -10.682  -9.365  43.475  -9.351  42.798 -27.347  35.387
2.070000e+01 -25.626 -10.726  -9.370  42.683  -9.356  42.007 -27.307  34.889
2.075000e+01 -25.547 -11.900  -9.375  41.896  -9.361  41.234 -27.286  35.301
2.080000e+01 -25.463 -11.223  -9.380  41.096  -9.365  40.434 -27.237  33.878
2.085000e+01 -25.390 -12.681  -9.383  40.319  -9.369  39.664 -27.194  33.509
2.090000e+01 -25.314 -12.578  -9.389  39.555  -9.373  38.855 -27.147  32.227
2.095000e+01 -25.252 -12.632  -9.393  38.762  -9.377  38.054 -27.037  32.432
    21 -25.187 -13.935  -9.397  37.973  -9.382  37.256 -26.955  31.604
2.105000e+01 -25.139 -13.131  -9.401  37.184  -9.386  36.493 -26.869  30.477
2.110000e+01 -25.074 -14.769  -9.405  36.413  -9.390  35.703 -26.778  31.715
2.115000e+01 -25.004 -14.303  -9.409  35.600  -9.393  34.934 -26.669  29.182
2.120000e+01 -24.943 -15.091  -9.413  34.828  -9.397  34.138 -26.578  29.500
2.125000e+01 -24.870 -15.502  -9.417  34.008  -9.399  33.361 -26.465  27.999
2.130000e+01 -24.810 -15.297  -9.422  33.261  -9.404  32.567 -26.343  27.737
2.135000e+01 -24.756 -16.742  -9.427  32.457  -9.408  31.793 -26.261  27.594
2.140000e+01 -24.695 -16.016  -9.432  31.668  -9.413  31.009 -26.168  26.757
2.145000e+01 -24.623 -16.936  -9.437  30.847  -9.417  30.222 -26.104  26.450
2.150000e+01 -24.552 -17.640  -9.442  30.088  -9.422  29.417 -26.051  25.779
2.155000e+01 -24.500 -17.310  -9.447  29.289  -9.426  28.629 -25.997  25.524
2.160000e+01 -24.408 -18.018  -9.451  28.525  -9.433  27.811 -25.942  25.225
2.165000e+01 -24.354 -18.098  -9.456  27.719  -9.438  27.004 -25.914  24.062
2.170000e+01 -24.299 -18.565  -9.460  26.938  -9.443  26.212 -25.870  24.909
2.175000e+01 -24.243 -18.223  -9.466  26.121  -9.449  25.424 -25.824  23.487
2.180000e+01 -24.193 -18.697  -9.470  25.344  -9.453  24.620 -25.771  23.346
2.185000e+01 -24.151 -19.208  -9.476  24.545  -9.458  23.792 -25.716  22.803
2.190000e+01 -24.119 -19.331  -9.481  23.764  -9.464  23.013 -25.618  22.203
2.195000e+01 -24.082 -19.913  -9.487  22.956  -9.470  22.177 -25.543  22.068
    22 -24.047 -19.778  -9.492  22.170  -9.475  21.418 -25.450  21.478
2.205000e+01 -24.025 -20.344  -9.498  21.382  -9.482  20.613 -25.345  21.930
2.210000e+01 -23.992 -20.360  -9.504  20.577  -9.487  19.828 -25.240  20.580
2.215000e+01 -23.978 -20.712  -9.512  19.798  -9.495  18.999 -25.128  20.675
2.220000e+01 -23.942 -21.256  -9.517  18.989  -9.502  18.205 -25.037  20.121
2.225000e+01 -23.915 -21.465  -9.524  18.183  -9.510  17.407 -24.912  20.167
2.230000e+01 -23.878 -22.216  -9.531  17.400  -9.518  16.662 -24.847  19.853
2.235000e+01 -23.833 -21.993  -9.538  16.621  -9.527  15.848 -24.774  19.193
2.240000e+01 -23.781 -22.746  -9.544  15.768  -9.534  15.036 -24.720  20.049
2.245000e+01 -23.742 -23.068  -9.550  15.006  -9.543  14.238 -24.663  18.520
2.250000e+01 -23.692 -22.745  -9.556  14.200  -9.550  13.465 -24.627  19.009
2.255000e+01 -23.639 -23.937  -9.561  13.396  -9.557  12.684 -24.582  18.185
2.260000e+01 -23.594 -23.398  -9.566  12.611  -9.564  11.900 -24.534  17.888
2.265000e+01 -23.560 -24.103  -9.571  11.827  -9.571  11.104 -24.501  17.763
2.270000e+01 -23.504 -23.543  -9.576  11.035  -9.576  10.291 -24.453  16.941
2.275000e+01 -23.473 -24.162  -9.580  10.237  -9.582   9.510 -24.405  17.289
2.280000e+01 -23.436 -24.495  -9.587   9.441  -9.589   8.725 -24.340  16.347
2.285000e+01 -23.406 -24.131  -9.591   8.675  -9.595   7.925 -24.279  16.157
2.290000e+01 -23.375 -24.889  -9.598   7.876  -9.601   7.130 -24.189  16.158
2.295000e+01 -23.360 -24.685  -9.603   7.087  -9.607   6.363 -24.105  15.451
    23 -23.351 -24.916  -9.609   6.312  -9.612   5.572 -23.999  15.833
2.305000e+01 -23.342 -25.526  -9.614   5.520  -9.617   4.796 -23.916  15.395
2.310000e+01 -23.335 -25.062  -9.620   4.733  -9.621   3.998 -23.808  15.441
2.315000e+01 -23.318 -26.237  -9.624   3.883  -9.624   3.179 -23.723  15.807
2.320000e+01 -23.309 -26.168  -9.630   3.072  -9.629   2.386 -23.629  14.873
2.325000e+01 -23.289 -26.788  -9.635   2.247  -9.632   1.562 -23.567  15.771
2.330000e+01 -23.256 -27.095  -9.641   1.429  -9.638   0.764 -23.505  14.724
2.335000e+01 -23.235 -27.252  -9.647   0.588  -9.643  -0.056 -23.441  15.384
2.340000e+01 -23.211 -28.091  -9.655  -0.189  -9.650  -0.821 -23.407  14.212
2.345000e+01 -23.171 -27.644  -9.663  -1.020  -9.656  -1.675 -23.366  14.422
2.350000e+01 -23.135 -28.654  -9.669  -1.808  -9.664  -2.471 -23.347  14.112
2.355000e+01 -23.088 -28.291  -9.675  -2.573  -9.670  -3.246 -23.305  13.772
2.360000e+01 -23.051 -28.639  -9.679  -3.344  -9.677  -3.991 -23.299  13.490
2.365000e+01 -22.990 -29.126  -9.684  -4.180  -9.683  -4.851 -23.255  13.175
2.370000e+01 -22.958 -29.005  -9.686  -4.955  -9.687  -5.622 -23.222  12.665
2.375000e+01 -22.925 -29.448  -9.692  -5.767  -9.691  -6.422 -23.161  12.627
2.380000e+01 -22.912 -29.003  -9.697  -6.538  -9.697  -7.189 -23.095  12.405
2.385000e+01 -22.910 -29.694  -9.705  -7.358  -9.703  -8.059 -23.024  12.155
2.390000e+01 -22.910 -29.673  -9.710  -8.181  -9.707  -8.879 -22.963  12.414
2.395000e+01 -22.908 -29.657  -9.719  -8.959  -9.713  -9.612 -22.877  12.575
    24 -22.900 -30.220  -9.724  -9.798  -9.717 -10.415 -22.827  11.993
2.405000e+01 -22.885 -29.846  -9.731 -10.574  -9.722 -11.259 -22.749  12.186
2.410000e+01 -22.895 -30.893  -9.737 -11.399  -9.727 -12.109 -22.675  12.221
2.415000e+01 -22.885 -30.474  -9.743 -12.196  -9.734 -12.909 -22.621  11.445
2.420000e+01 -22.896 -31.155  -9.748 -13.082  -9.740 -13.736 -22.579  12.551
2.425000e+01 -22.889 -31.952  -9.753 -13.818  -9.747 -14.475 -22.519  11.789
2.430000e+01 -22.898 -31.413  -9.759 -14.624  -9.751 -15.265 -22.483  11.890
2.435000e+01 -22.868 -32.577  -9.763 -15.432  -9.754 -16.055 -22.474  11.291
2.440000e+01 -22.841 -31.995  -9.767 -16.294  -9.758 -16.904 -22.417  11.674
2.445000e+01 -22.821 -33.131  -9.772 -17.027  -9.762 -17.665 -22.379  11.164
2.450000e+01 -22.791 -32.849  -9.779 -17.885  -9.767 -18.546 -22.357  10.364
2.455000e+01 -22.753 -32.899  -9.785 -18.700  -9.774 -19.312 -22.327  11.118
2.460000e+01 -22.720 -33.999  -9.792 -19.521  -9.781 -20.158 -22.275  10.135
2.465000e+01 -22.690 -33.029  -9.797 -20.235  -9.787 -20.919 -22.246   9.631
2.470000e+01 -22.651 -33.816  -9.804 -21.069  -9.795 -21.809 -22.192   9.837
2.475000e+01 -22.620 -33.926  -9.810 -21.881  -9.802 -22.578 -22.136   8.928
2.480000e+01 -22.596 -33.717  -9.816 -22.698  -9.809 -23.404 -22.075   9.521
2.485000e+01 -22.567 -34.431  -9.821 -23.498  -9.816 -24.206 -22.021   8.942
2.490000e+01 -22.541 -33.799  -9.829 -24.304  -9.823 -24.997 -21.948   8.946
2.495000e+01 -22.507 -34.845  -9.835 -25.143  -9.829 -25.752 -21.881   8.940
    25 -22.425 -34.543  -9.845 -25.958  -9.832 -26.566 -21.783   8.360
