!Keysight Technologies,N5247B,US58420632,A.17.35.14
!Date: Friday, September 05, 2025 09:46:26
!Correction: S11(C  2-Port  ) 
!S21(C  2-Port  ) 
!S12(C  2-Port  ) 
!S22(C  2-Port  ) 
!S2P File: Measurements: S11, S21, S12, S22:
# Hz S  dB   R 50
10000000 -42.758446 -71.791443 -0.10182387 0.19756758 -0.10750283 0.21808146 -38.877914 -50.677414
50030030.03003 -45.569767 30.218605 -0.12766901 -0.98409748 -0.12500986 -0.97122145 -40.628246 8.6868086
90060060.06006 -42.209576 30.903891 -0.1328187 -1.7346489 -0.12838137 -1.7355217 -38.862278 19.954477
130090090.09009 -39.793255 33.953911 -0.1406301 -2.5276501 -0.13832135 -2.520823 -37.328362 23.557989
170120120.12012 -38.566147 41.787628 -0.15456201 -3.2270329 -0.15148507 -3.2199054 -36.53273 18.01829
210150150.15015 -38.538158 37.758518 -0.16244034 -3.9278142 -0.15958688 -3.9306843 -36.038445 20.084454
250180180.18018 -37.039146 33.52383 -0.17024575 -4.6141019 -0.16754186 -4.6151915 -35.100079 19.98937
290210210.21021 -36.450821 38.050861 -0.17541736 -5.3142729 -0.17320536 -5.3188787 -34.62278 18.060009
330240240.24024 -36.565956 36.981796 -0.1823158 -5.9924259 -0.1801912 -5.9964333 -34.599476 18.922104
370270270.27027 -36.052883 31.097168 -0.1899983 -6.662931 -0.18645947 -6.6589279 -33.932713 19.21702
410300300.3003 -35.554607 32.622765 -0.19422808 -7.3353338 -0.1891941 -7.3317742 -33.470703 16.867367
450330330.33033 -35.564903 32.610386 -0.19916384 -7.9946189 -0.19563892 -7.9978333 -33.586838 15.90564
490360360.36036 -35.806561 28.306192 -0.2018254 -8.6519852 -0.19874541 -8.6525269 -33.265697 16.941549
530390390.39039 -35.166225 26.457403 -0.203816 -9.3089209 -0.20201007 -9.3055849 -32.739605 15.655332
570420420.42042 -35.178814 27.74815 -0.20864397 -9.9600716 -0.20584604 -9.9597616 -32.738777 13.348527
610450450.45045 -35.724072 24.553316 -0.21162744 -10.615582 -0.20882812 -10.613617 -32.802509 14.434
650480480.48048 -35.084949 20.999134 -0.2144465 -11.267715 -0.21240944 -11.263001 -32.442188 13.876689
690510510.51051 -35.053093 22.926985 -0.21755098 -11.915033 -0.21447016 -11.913333 -32.30143 11.604384
730540540.54054 -35.616924 21.884653 -0.21748511 -12.566958 -0.21771236 -12.565342 -32.41856 11.175098
770570570.57057 -35.339531 18.216022 -0.22270651 -13.218599 -0.22033249 -13.211961 -32.014084 10.791882
810600600.6006 -34.912262 19.337734 -0.22347334 -13.862418 -0.22067456 -13.865697 -31.73292 9.0042486
850630630.63063 -35.058098 20.52803 -0.22488526 -14.518264 -0.22232287 -14.518395 -31.788586 8.3215303
890660660.66066 -35.223263 17.672659 -0.22835378 -15.168587 -0.22450143 -15.158884 -31.720181 8.2904739
930690690.69069 -34.835625 17.591501 -0.22882527 -15.808114 -0.22507828 -15.810061 -31.436522 7.0909324
970720720.72072 -34.782944 19.372252 -0.2303039 -16.46122 -0.22789136 -16.46068 -31.457123 4.9819121
1010750750.7508 -35.446564 18.954039 -0.23143081 -17.11339 -0.22823456 -17.114351 -31.564856 4.8773379
1050780780.7808 -35.288616 17.620991 -0.2327563 -17.771595 -0.23013194 -17.766474 -31.346684 4.0375876
1090810810.8108 -35.17017 20.38014 -0.23304363 -18.423637 -0.23050289 -18.417154 -31.303303 2.1723754
1130840840.8408 -35.761318 22.505613 -0.23506853 -19.074261 -0.23124707 -19.073801 -31.435713 1.7183635
1170870870.8709 -35.785461 20.853121 -0.23564678 -19.732019 -0.23211835 -19.724735 -31.31542 1.5985472
1210900900.9009 -35.514229 22.670029 -0.23681445 -20.383018 -0.2326345 -20.372787 -31.17135 -0.31315371
1250930930.9309 -35.788544 25.013433 -0.23784871 -21.02746 -0.23335309 -21.030298 -31.263577 -0.59702593
1290960960.961 -36.352005 24.075392 -0.23840328 -21.685701 -0.23449254 -21.682976 -31.306885 -0.51821816
1330990990.991 -36.316479 24.343338 -0.23736122 -22.33922 -0.23467425 -22.335394 -31.210417 -1.8533065
1371021021.021 -36.468369 26.996225 -0.23938787 -22.996811 -0.23588619 -22.989346 -31.281616 -3.0956345
1411051051.0511 -37.036324 29.407671 -0.23994097 -23.648685 -0.23610976 -23.641668 -31.384022 -3.3134084
1451081081.0811 -37.288921 28.222918 -0.24026625 -24.311098 -0.2353612 -24.302359 -31.344101 -3.6186709
1491111111.1111 -37.166122 30.131639 -0.2405456 -24.968197 -0.23694129 -24.957809 -31.231287 -5.0886483
1531141141.1411 -37.634274 33.398636 -0.2405549 -25.62896 -0.2364282 -25.619339 -31.335773 -4.9924631
1571171171.1712 -37.909294 32.639965 -0.24111883 -26.290531 -0.23749109 -26.287083 -31.296501 -4.5148902
1611201201.2012 -37.794861 33.410923 -0.24137743 -26.953224 -0.23823072 -26.947485 -31.264906 -5.6638546
1651231231.2312 -37.950188 37.526192 -0.24156488 -27.619734 -0.2371641 -27.612099 -31.340134 -6.419888
1691261261.2613 -38.178909 39.527573 -0.24170719 -28.283045 -0.23928666 -28.277281 -31.250217 -6.0331693
1731291291.2913 -38.112194 39.994026 -0.24246781 -28.950598 -0.23820584 -28.937637 -31.187624 -6.6414413
1771321321.3213 -38.098812 42.55859 -0.24226443 -29.609961 -0.24010977 -29.604858 -31.201551 -7.170814
1811351351.3514 -38.235889 45.196117 -0.24339144 -30.268551 -0.24055134 -30.255846 -31.146452 -7.0326209
1851381381.3814 -38.167828 45.666157 -0.24326742 -30.931271 -0.23937446 -30.920513 -31.14011 -6.8214531
1891411411.4114 -38.1134 47.409752 -0.24429035 -31.598427 -0.2397027 -31.588573 -31.099216 -7.8328638
1931441441.4414 -38.098949 49.872147 -0.24296573 -32.258556 -0.23985645 -32.25082 -31.122425 -8.0460196
1971471471.4715 -37.911026 52.116074 -0.24370164 -32.925583 -0.24058034 -32.920303 -31.070202 -7.6674314
2011501501.5015 -37.672188 52.550274 -0.24450943 -33.600616 -0.24057733 -33.588573 -30.951134 -8.1455498
2051531531.5315 -37.799049 54.715141 -0.24413674 -34.268547 -0.24020004 -34.266708 -30.969812 -8.7894964
2091561561.5616 -37.681454 56.167137 -0.24535571 -34.947685 -0.24038199 -34.940945 -30.952311 -9.099494
2131591591.5916 -37.469109 57.191887 -0.24528067 -35.62104 -0.24044874 -35.614552 -30.842817 -9.1856976
2171621621.6216 -37.498543 58.378605 -0.24509634 -36.29232 -0.24153368 -36.28022 -30.887489 -9.7402954
2211651651.6517 -37.384083 59.505741 -0.24578741 -36.965786 -0.24123321 -36.954487 -30.914587 -10.049646
2251681681.6817 -37.060928 60.787788 -0.2458811 -37.639931 -0.24150139 -37.632278 -30.78496 -9.6169453
2291711711.7117 -37.062252 60.937706 -0.24513769 -38.307751 -0.24226388 -38.301373 -30.771845 -10.0168
2331741741.7417 -37.013767 61.491772 -0.24582933 -38.981899 -0.24144666 -38.973057 -30.807568 -10.492935
2371771771.7718 -36.663681 62.406639 -0.24535407 -39.647938 -0.24116918 -39.641365 -30.724691 -11.01786
2411801801.8018 -36.613235 63.082577 -0.24543077 -40.326817 -0.24081783 -40.317154 -30.654728 -10.913852
2451831831.8318 -36.646008 63.227013 -0.24630353 -41.001148 -0.24134213 -40.997471 -30.714687 -11.43034
2491861861.8619 -36.394337 63.560566 -0.24515302 -41.677525 -0.24111883 -41.675858 -30.657845 -11.906603
2531891891.8919 -36.053833 63.653942 -0.2456636 -42.356468 -0.24182816 -42.355278 -30.550573 -12.00662
2571921921.9219 -36.110657 62.964066 -0.24522917 -43.039139 -0.24237172 -43.035847 -30.576035 -12.209273
2611951951.952 -35.968159 62.379333 -0.24581946 -43.725998 -0.24036393 -43.717922 -30.608452 -12.814177
2651981981.982 -35.455631 62.84481 -0.2460082 -44.408527 -0.24171868 -44.40242 -30.469368 -13.065104
2692012012.012 -35.295464 62.86554 -0.24625696 -45.095089 -0.24160703 -45.084412 -30.445356 -12.840539
2732042042.042 -35.340328 62.101318 -0.24609312 -45.77956 -0.24151015 -45.771221 -30.458796 -13.56557
2772072072.0721 -35.04871 61.653763 -0.2461797 -46.461761 -0.24104878 -46.453255 -30.441374 -14.01431
2812102102.1021 -34.793621 61.967911 -0.24608874 -47.142651 -0.24232957 -47.144806 -30.393295 -13.91351
2852132132.1321 -34.78178 61.350822 -0.24569921 -47.824799 -0.24127097 -47.829311 -30.378204 -14.209383
2892162162.1622 -34.56422 60.512001 -0.24520479 -48.517086 -0.24140616 -48.511997 -30.434288 -15.025462
2932192192.1922 -34.394974 60.689106 -0.24555458 -49.211445 -0.24127097 -49.206245 -30.42284 -15.390926
2972222222.2222 -34.327423 60.601345 -0.24602902 -49.89687 -0.24090868 -49.8937 -30.39492 -14.878223
3012252252.2523 -34.198353 59.82513 -0.24506621 -50.591679 -0.24087229 -50.581112 -30.379038 -14.95662
3052282282.2823 -33.866665 58.892002 -0.24490106 -51.29047 -0.24129833 -51.287891 -30.30661 -14.719015
3092312312.3123 -33.735558 59.020123 -0.24520534 -51.992165 -0.24042329 -51.986916 -30.241472 -13.993171
3132342342.3423 -33.715042 57.482307 -0.24587891 -52.68438 -0.24160101 -52.691193 -30.228609 -13.939113
3172372372.3724 -33.458958 56.286243 -0.2459704 -53.388481 -0.24067254 -53.383404 -30.155823 -14.278821
3212402402.4024 -33.294586 56.023159 -0.24431226 -54.089989 -0.24058828 -54.085068 -30.071012 -13.720136
3252432432.4324 -33.26215 54.587166 -0.24462637 -54.791447 -0.24096614 -54.785404 -29.980556 -12.732852
3292462462.4625 -33.163826 52.4044 -0.24411373 -55.487896 -0.23989092 -55.482224 -29.943554 -13.170976
3332492492.4925 -33.028503 51.671539 -0.24431172 -56.191521 -0.23984359 -56.181377 -29.905193 -13.225411
3372522522.5225 -32.953465 50.708252 -0.24441467 -56.88884 -0.23990513 -56.884109 -29.751999 -12.57863
3412552552.5526 -32.914337 48.524998 -0.24467593 -57.592537 -0.23921254 -57.583801 -29.688988 -12.442918
3452582582.5826 -32.634666 47.36916 -0.2447466 -58.297733 -0.23937118 -58.290207 -29.613106 -12.933614
3492612612.6126 -32.550056 46.168118 -0.24498104 -59.006744 -0.23964526 -58.998287 -29.420624 -12.672577
3532642642.6426 -32.47834 43.860764 -0.24456748 -59.716522 -0.23925275 -59.711224 -29.299591 -12.21672
3572672672.6727 -32.337673 41.582687 -0.24370137 -60.427246 -0.23950139 -60.423077 -29.183308 -12.495487
3612702702.7027 -32.088886 40.301247 -0.24340896 -61.140766 -0.23924617 -61.134346 -29.093927 -12.179704
3652732732.7327 -31.999008 38.432789 -0.24333614 -61.856911 -0.23977548 -61.850021 -28.903643 -12.030755
3692762762.7628 -31.752666 36.031525 -0.24307194 -62.571697 -0.2389445 -62.569466 -28.838074 -11.712465
3732792792.7928 -31.587379 34.858124 -0.24213579 -63.291649 -0.23859471 -63.275227 -28.751421 -12.155072
3772822822.8228 -31.451902 33.748341 -0.24318528 -64.003044 -0.23883784 -63.994019 -28.646421 -12.010441
3812852852.8529 -31.237011 31.191759 -0.24296847 -64.716743 -0.23762916 -64.713303 -28.519751 -11.856692
3852882882.8829 -30.945242 29.667282 -0.24339992 -65.428581 -0.23802318 -65.423241 -28.395992 -11.89024
3892912912.9129 -30.774639 28.441507 -0.2424771 -66.1483 -0.23826927 -66.141418 -28.298212 -11.874249
3932942942.9429 -30.58079 26.650091 -0.24255922 -66.869514 -0.2370121 -66.857018 -28.145304 -11.870309
3972972972.973 -30.360203 24.891132 -0.24233067 -67.585205 -0.23707497 -67.578438 -28.054853 -11.700174
4013003003.003 -30.211588 23.645838 -0.24270266 -68.309662 -0.23717941 -68.30204 -28.021885 -11.695698
4053033033.033 -29.991743 22.010485 -0.24265394 -69.033417 -0.23786211 -69.027489 -27.879808 -11.738426
4093063063.0631 -29.762251 20.580137 -0.24301255 -69.760162 -0.23635302 -69.756569 -27.745974 -11.657109
4133093093.0931 -29.592278 19.011559 -0.2420627 -70.487442 -0.23649271 -70.483299 -27.671183 -11.962643
4173123123.1231 -29.425776 17.686018 -0.24072562 -71.214867 -0.23713265 -71.205727 -27.541397 -12.347627
4213153153.1532 -29.220951 16.447483 -0.24137661 -71.939514 -0.2362456 -71.932381 -27.385422 -12.36446
4253183183.1832 -29.037214 14.707573 -0.2416489 -72.673553 -0.23689973 -72.663139 -27.260157 -12.175508
4293213213.2132 -28.858252 13.433508 -0.24133746 -73.391136 -0.23588565 -73.389015 -27.149431 -12.222509
4333243243.2432 -28.618715 11.993023 -0.24130327 -74.120773 -0.23492016 -74.112839 -26.962215 -12.47261
4373273273.2733 -28.425766 10.819311 -0.24164206 -74.849396 -0.2355167 -74.841866 -26.784237 -12.412756
4413303303.3033 -28.270359 9.0494518 -0.24032125 -75.578369 -0.23560442 -75.573257 -26.727531 -12.367712
4453333333.3333 -28.076206 7.7456918 -0.23966113 -76.304565 -0.23427179 -76.300941 -26.554571 -12.814994
4493363363.3634 -27.901312 6.67945 -0.2391696 -77.036346 -0.23430376 -77.035751 -26.412481 -12.820242
4533393393.3934 -27.779169 5.2265935 -0.23992538 -77.782524 -0.23454501 -77.771675 -26.308275 -12.814933
4573423423.4234 -27.607197 3.4187512 -0.24004602 -78.523193 -0.23415022 -78.51342 -26.202791 -13.174003
4613453453.4535 -27.462107 2.5765028 -0.23939443 -79.256462 -0.23348667 -79.248184 -26.095985 -13.285711
4653483483.4835 -27.317472 0.8612169 -0.23826298 -80.001114 -0.23331158 -79.996307 -25.917486 -13.381931
4693513513.5135 -27.183947 -0.68541747 -0.23845442 -80.737915 -0.23227893 -80.72818 -25.881071 -13.556911
4733543543.5435 -27.016693 -1.5395097 -0.23775466 -81.474007 -0.23190154 -81.468224 -25.796526 -13.926876
4773573573.5736 -26.888266 -2.9133539 -0.23770052 -82.212654 -0.23169895 -82.203026 -25.6649 -14.201861
4813603603.6036 -26.804981 -4.3894124 -0.23628606 -82.950356 -0.23116626 -82.940285 -25.58139 -14.471767
4853633633.6336 -26.604977 -5.4771714 -0.23616579 -83.690514 -0.22992806 -83.680405 -25.498821 -14.87781
4893663663.6637 -26.476505 -6.3564758 -0.23644623 -84.423233 -0.2296 -84.422241 -25.372663 -15.334084
4933693693.6937 -26.383997 -7.9276505 -0.23566018 -85.159813 -0.22941197 -85.164169 -25.250338 -15.687857
4973723723.7237 -26.227953 -9.5595541 -0.23426659 -85.904953 -0.22884901 -85.893471 -25.183729 -16.13299
5013753753.7538 -26.090446 -10.200239 -0.23431687 -86.648964 -0.22845064 -86.646385 -25.152161 -16.333431
5053783783.7838 -25.996721 -11.50189 -0.23240674 -87.408165 -0.22799666 -87.401901 -25.028303 -17.179497
5093813813.8138 -25.863169 -12.871789 -0.23336565 -88.151695 -0.22739352 -88.147408 -24.946667 -17.723141
5133843843.8438 -25.755644 -13.802567 -0.23203562 -88.899139 -0.2271052 -88.896599 -24.918436 -17.931463
5173873873.8739 -25.65134 -15.043819 -0.23233901 -89.644905 -0.22723532 -89.647415 -24.79295 -18.697281
5213903903.9039 -25.549469 -16.339849 -0.23128256 -90.395882 -0.22540681 -90.390533 -24.688688 -19.068819
5253933933.9339 -25.378475 -17.41717 -0.23007818 -91.141068 -0.22451779 -91.140343 -24.644112 -19.299179
5293963963.964 -25.260693 -18.282946 -0.23075294 -91.889908 -0.22473642 -91.888985 -24.557377 -19.761999
5333993993.994 -25.173592 -19.550138 -0.22867848 -92.629753 -0.22298771 -92.630615 -24.481295 -20.37809
5374024024.024 -25.039228 -20.753361 -0.22743635 -93.369751 -0.22261605 -93.374283 -24.431608 -20.882032
5414054054.0541 -24.951035 -21.703915 -0.22599086 -94.12233 -0.22206704 -94.120361 -24.410748 -21.034763
5454084084.0841 -24.91333 -22.6136 -0.22671491 -94.870689 -0.22100902 -94.871727 -24.359869 -21.489759
5494114114.1141 -24.82062 -23.993639 -0.22520533 -95.615936 -0.22048609 -95.619751 -24.300264 -22.043106
5534144144.1441 -24.718328 -24.947374 -0.2239721 -96.37661 -0.21961823 -96.37294 -24.300808 -22.230888
5574174174.1742 -24.649736 -25.858864 -0.22482529 -97.12677 -0.21906199 -97.135284 -24.275963 -22.929054
5614204204.2042 -24.631456 -26.75968 -0.22424984 -97.88002 -0.21733026 -97.885376 -24.22612 -23.53866
5654234234.2342 -24.551302 -27.88899 -0.22323488 -98.638733 -0.21734686 -98.643982 -24.204874 -23.700232
5694264264.2643 -24.481537 -28.757378 -0.22225149 -99.392624 -0.21636535 -99.393272 -24.21332 -24.206726
5734294294.2943 -24.488272 -29.808569 -0.22108963 -100.1459 -0.21462518 -100.15122 -24.192402 -24.736341
5774324324.3243 -24.410091 -30.922688 -0.21948072 -100.90067 -0.21597846 -100.90878 -24.139341 -25.251556
5814354354.3544 -24.296078 -31.751617 -0.21902196 -101.65231 -0.21499263 -101.65569 -24.137524 -25.751793
5854384384.3844 -24.330235 -32.421043 -0.21826409 -102.40671 -0.21334165 -102.41019 -24.129749 -26.289356
5894414414.4144 -24.27516 -33.319168 -0.218839 -103.15957 -0.21378703 -103.16937 -24.071417 -27.129017
5934444444.4444 -24.232597 -34.08289 -0.21757329 -103.91629 -0.21244206 -103.91938 -24.072002 -27.696005
5974474474.4745 -24.241528 -34.880375 -0.2169871 -104.67229 -0.2116951 -104.67799 -24.065655 -27.932289
6014504504.5045 -24.229813 -36.068417 -0.21622087 -105.42724 -0.21150295 -105.42745 -24.047575 -28.417568
6054534534.5345 -24.218744 -37.196247 -0.21480332 -106.18845 -0.21005353 -106.19286 -24.097313 -28.736317
6094564564.5646 -24.204622 -37.958622 -0.21357033 -106.95725 -0.20953709 -106.95882 -24.138683 -29.217083
6134594594.5946 -24.271507 -38.848095 -0.2124377 -107.70395 -0.20853941 -107.71766 -24.172842 -29.717402
6174624624.6246 -24.27392 -39.905697 -0.21188129 -108.47098 -0.2081994 -108.48032 -24.227787 -30.520058
6214654654.6547 -24.26717 -40.69508 -0.21182312 -109.23364 -0.2068488 -109.23997 -24.296114 -31.145765
6254684684.6847 -24.346453 -41.436615 -0.21058145 -109.9947 -0.20576978 -110.0004 -24.347599 -31.213371
6294714714.7147 -24.313747 -42.478374 -0.21078797 -110.75249 -0.20527284 -110.75402 -24.350803 -32.142075
6334744744.7447 -24.26779 -43.137123 -0.20928881 -111.50791 -0.2037205 -111.51959 -24.415619 -32.726318
6374774774.7748 -24.361931 -43.801792 -0.20774834 -112.26823 -0.20332579 -112.2739 -24.428911 -32.903961
6414804804.8048 -24.402058 -44.767204 -0.20718655 -113.03001 -0.2031869 -113.03815 -24.525267 -33.551743
6454834834.8348 -24.449949 -45.832676 -0.20589164 -113.79308 -0.20150895 -113.79485 -24.627701 -34.14669
6494864864.8649 -24.48867 -46.518169 -0.20576842 -114.55524 -0.20183651 -114.5548 -24.682493 -34.646862
6534894894.8949 -24.551092 -47.505798 -0.20550679 -115.31971 -0.20207651 -115.32532 -24.758247 -35.066227
6574924924.9249 -24.611135 -48.293121 -0.2047442 -116.08296 -0.20039465 -116.08475 -24.810837 -35.733925
6614954954.955 -24.621014 -48.945114 -0.20401296 -116.85438 -0.20057087 -116.85303 -24.88232 -36.372879
6654984984.985 -24.76292 -49.773582 -0.20324142 -117.61023 -0.19962619 -117.61922 -24.974451 -36.765476
6695015015.015 -24.867306 -50.843605 -0.20226879 -118.38232 -0.19873133 -118.37849 -25.02066 -37.239666
6735045045.045 -24.876965 -51.805477 -0.20235287 -119.14986 -0.19785182 -119.14364 -25.13129 -37.434605
6775075075.0751 -25.011362 -52.620514 -0.20082162 -119.90808 -0.19780034 -119.90443 -25.243904 -37.561779
6815105105.1051 -25.107492 -53.548145 -0.20072891 -120.67416 -0.19770145 -120.67357 -25.349606 -38.238781
6855135135.1351 -25.184637 -54.699322 -0.20066845 -121.44396 -0.1966182 -121.43539 -25.447533 -38.726463
6895165165.1652 -25.285791 -55.296837 -0.19987719 -122.20536 -0.19593896 -122.19823 -25.573778 -39.2616
6935195195.1952 -25.410261 -56.323071 -0.20122506 -122.96989 -0.19622116 -122.96592 -25.645123 -39.702427
6975225225.2252 -25.524166 -57.679943 -0.19936275 -123.73755 -0.19541633 -123.72836 -25.756887 -39.635696
7015255255.2553 -25.606764 -58.417477 -0.19987719 -124.50407 -0.19569036 -124.49804 -25.903242 -39.772839
7055285285.2853 -25.773439 -58.976757 -0.19962674 -125.27724 -0.19545858 -125.27489 -26.140596 -40.051682
7095315315.3153 -26.032051 -60.197014 -0.19859801 -126.05257 -0.19437262 -126.04091 -26.266844 -40.270794
7135345345.3453 -26.095713 -61.314651 -0.19834547 -126.81839 -0.194263 -126.81438 -26.440523 -40.819267
7175375375.3754 -26.264322 -61.828197 -0.1978808 -127.58614 -0.19335407 -127.58112 -26.644999 -41.213421
7215405405.4054 -26.474102 -63.123947 -0.19891669 -128.36615 -0.19472511 -128.35809 -26.781534 -41.463257
7255435435.4354 -26.541559 -64.658379 -0.19875166 -129.13452 -0.19447199 -129.1246 -26.924887 -41.749863
7295465465.4655 -26.696016 -65.185616 -0.1985178 -129.90175 -0.1941428 -129.89326 -27.129839 -42.189053
7335495495.4955 -26.935909 -66.078331 -0.19855329 -130.6669 -0.19356194 -130.66319 -27.320204 -42.435291
7375525525.5255 -27.113945 -67.778625 -0.19847065 -131.43666 -0.19281822 -131.42953 -27.491949 -42.416416
7415555555.5556 -27.203478 -68.631866 -0.19905354 -132.20943 -0.19296111 -132.20332 -27.718121 -42.713947
7455585585.5856 -27.427073 -68.95443 -0.19954354 -132.97684 -0.19451664 -132.97542 -27.891336 -42.830276
7495615615.6156 -27.774958 -70.446037 -0.19798131 -133.74718 -0.19452287 -133.74283 -28.123117 -42.759834
7535645645.6456 -27.877981 -71.819008 -0.19974816 -134.5264 -0.19446738 -134.52043 -28.305473 -43.129665
7575675675.6757 -28.019573 -72.564156 -0.19876167 -135.298 -0.19492626 -135.28828 -28.48436 -43.293533
7615705705.7057 -28.315308 -73.997147 -0.19925083 -136.07268 -0.19504322 -136.06575 -28.661793 -43.157814
7655735735.7357 -28.43067 -75.600716 -0.20018132 -136.84439 -0.19576673 -136.84129 -28.864075 -42.957481
7695765765.7658 -28.667044 -76.522224 -0.19928361 -137.61121 -0.19473729 -137.60487 -29.097527 -42.870438
7735795795.7958 -28.889534 -77.54277 -0.20064975 -138.38649 -0.19597471 -138.37654 -29.256804 -42.706032
7775825825.8258 -29.075878 -79.309593 -0.20115294 -139.15457 -0.19614533 -139.15152 -29.397179 -42.383366
7815855855.8559 -29.305027 -80.138779 -0.19988097 -139.92035 -0.19595711 -139.91583 -29.675192 -42.262234
7855885885.8859 -29.514919 -81.017441 -0.202198 -140.69525 -0.19670053 -140.6819 -29.87092 -42.259571
7895915915.9159 -29.840467 -83.081932 -0.20058848 -141.45148 -0.19722061 -141.45311 -30.062742 -42.155781
7935945945.9459 -29.969269 -84.677063 -0.20124838 -142.22543 -0.19765404 -142.2251 -30.301069 -41.724812
7975975975.976 -30.179815 -85.819855 -0.20245294 -142.9957 -0.19726476 -142.99463 -30.504049 -41.074547
8016006006.006 -30.495996 -87.926704 -0.20329106 -143.77278 -0.19810352 -143.77052 -30.670685 -40.6101
8056036036.036 -30.668179 -89.844894 -0.20428237 -144.55138 -0.19918226 -144.5515 -30.871126 -39.961723
8096066066.0661 -30.8759 -91.097176 -0.20541559 -145.32385 -0.20063457 -145.3237 -31.040787 -39.2897
8136096096.0961 -31.20569 -92.469849 -0.20597687 -146.10266 -0.20011246 -146.10498 -31.317707 -38.952221
8176126126.1261 -31.413223 -94.243515 -0.20651761 -146.88937 -0.20165944 -146.88419 -31.380983 -38.561752
8216156156.1562 -31.61058 -95.973709 -0.20631564 -147.66116 -0.20234391 -147.65758 -31.50721 -37.730431
8256186186.1862 -31.850527 -97.420807 -0.20817903 -148.44051 -0.20327316 -148.44185 -31.634727 -37.014431
8296216216.2162 -32.051392 -99.922897 -0.20998697 -149.21222 -0.20470241 -149.2146 -31.688231 -35.685326
8336246246.2462 -32.17971 -102.43989 -0.21055184 -149.98851 -0.20558386 -149.97943 -31.807009 -34.33836
8376276276.2763 -32.312786 -103.71005 -0.21211994 -150.76694 -0.20766063 -150.76178 -31.963638 -33.154652
8416306306.3063 -32.652302 -106.7473 -0.21203269 -151.53661 -0.20817088 -151.53505 -32.049667 -32.300747
8456336336.3363 -32.682709 -109.74924 -0.21346401 -152.317 -0.21069314 -152.31526 -32.019794 -31.391317
8496366366.3664 -32.666771 -110.50208 -0.21530843 -153.08896 -0.21130402 -153.09293 -32.081577 -30.243702
8536396396.3964 -33.030254 -112.14235 -0.21520181 -153.86818 -0.21135403 -153.87407 -32.11274 -30.004099
8576426426.4264 -33.070568 -115.15509 -0.21702439 -154.6526 -0.21409324 -154.65398 -32.044861 -29.187321
8616456456.4565 -33.04697 -117.43707 -0.2170369 -155.42986 -0.21470895 -155.43246 -31.988815 -28.0935
8656486486.4865 -33.218304 -119.71221 -0.21922451 -156.2133 -0.21518821 -156.21066 -31.898462 -27.027464
8696516516.5165 -33.270565 -122.79833 -0.22056697 -156.99455 -0.21724835 -156.99364 -31.857599 -26.261784
8736546546.5465 -33.067795 -125.6028 -0.22225803 -157.7742 -0.21859019 -157.77255 -31.739552 -25.251558
8776576576.5766 -33.068123 -126.55197 -0.22473042 -158.55972 -0.22081372 -158.5533 -31.676531 -24.402718
8816606606.6066 -33.11013 -128.72951 -0.22559412 -159.33469 -0.22203843 -159.33093 -31.610138 -24.626713
8856636636.6366 -32.964432 -130.47464 -0.22706456 -160.11568 -0.22308309 -160.10817 -31.449125 -24.803755
8896666666.6667 -32.946198 -131.07672 -0.22866647 -160.90048 -0.22531602 -160.89301 -31.376627 -24.576588
8936696696.6967 -33.135773 -134.11707 -0.22978041 -161.67905 -0.22699691 -161.67603 -31.27809 -24.188753
8976726726.7267 -32.851429 -136.80695 -0.23090526 -162.4639 -0.22755554 -162.45937 -31.080683 -24.160704
9016756756.7568 -32.521267 -136.93896 -0.2333408 -163.25369 -0.23001622 -163.24814 -30.818293 -24.071388
9056786786.7868 -32.483795 -138.90634 -0.23415157 -164.04732 -0.23228739 -164.03807 -30.624821 -24.149504
9096816816.8168 -32.346191 -140.19725 -0.23644131 -164.83762 -0.23319085 -164.83316 -30.511412 -24.803726
9136846846.8468 -32.060837 -141.58299 -0.23828022 -165.63394 -0.23486222 -165.62531 -30.289341 -25.75684
9176876876.8769 -31.973719 -142.6389 -0.23984113 -166.42587 -0.23671877 -166.41776 -30.055525 -25.628939
9216906906.9069 -31.821047 -144.80806 -0.24296984 -167.21483 -0.23902053 -167.21489 -29.820782 -25.471886
9256936936.9369 -31.547443 -146.17694 -0.24428241 -168.01041 -0.2402378 -168.00926 -29.704348 -25.963636
9296966966.967 -31.490391 -146.38271 -0.24619505 -168.80125 -0.24290222 -168.79849 -29.531029 -26.385923
9336996996.997 -31.478558 -147.53799 -0.24672984 -169.58926 -0.24396341 -169.58052 -29.362396 -26.892532
9377027027.027 -31.25174 -149.34261 -0.24933793 -170.38431 -0.245399 -170.37758 -29.216652 -27.539347
9417057057.0571 -30.992821 -150.11653 -0.25152186 -171.18221 -0.24852239 -171.17404 -29.001457 -28.378771
9457087087.0871 -30.749344 -151.27278 -0.2533378 -171.97221 -0.25033268 -171.97046 -28.804583 -28.876675
9497117117.1171 -30.543274 -151.96066 -0.25539169 -172.77887 -0.25218982 -172.77489 -28.611691 -29.685076
9537147147.1471 -30.364109 -152.56125 -0.25827146 -173.58458 -0.25406805 -173.57594 -28.43222 -30.159155
9577177177.1772 -30.210918 -153.42136 -0.25934052 -174.38892 -0.2562615 -174.38454 -28.288874 -31.043217
9617207207.2072 -30.105822 -153.84087 -0.26280037 -175.19429 -0.25777259 -175.18765 -28.126474 -31.779631
9657237237.2372 -29.946926 -154.87657 -0.26412198 -176.00345 -0.26000226 -175.99809 -27.993027 -32.485771
9697267267.2673 -29.729271 -155.77008 -0.26650605 -176.81015 -0.26232821 -176.80339 -27.865391 -33.299015
9737297297.2973 -29.597393 -156.01134 -0.26851413 -177.62059 -0.26485491 -177.61166 -27.708214 -34.347668
9777327327.3273 -29.457369 -157.0405 -0.27101824 -178.42615 -0.26667285 -178.41983 -27.561337 -35.139675
9817357357.3574 -29.297415 -158.13266 -0.27359739 -179.22902 -0.26881015 -179.22797 -27.416502 -35.538807
9857387387.3874 -29.098999 -159.0081 -0.27570888 179.95984 -0.27109069 179.96529 -27.272017 -36.166508
9897417417.4174 -28.862816 -159.46936 -0.27837747 179.1433 -0.27233076 179.15633 -27.076809 -37.544899
9937447447.4474 -28.713835 -159.81435 -0.28163877 178.3291 -0.27648926 178.33447 -26.942284 -38.555035
9977477477.4775 -28.564037 -160.40187 -0.28165781 177.51591 -0.27735007 177.52525 -26.821907 -39.501747
10017507507.508 -28.456266 -161.11996 -0.28386194 176.69208 -0.2804206 176.70114 -26.675365 -40.216766
10057537537.538 -28.290028 -162.13823 -0.28726009 175.87106 -0.28282356 175.87149 -26.498169 -40.680622
10097567567.568 -28.084517 -163.3924 -0.28945073 175.04958 -0.28419688 175.04956 -26.397116 -41.317024
10137597597.598 -27.917065 -163.66046 -0.29268101 174.22011 -0.28762433 174.22028 -26.236275 -42.103184
10177627627.628 -27.769838 -164.22302 -0.29368991 173.39929 -0.28980574 173.40228 -26.126358 -43.370594
10217657657.658 -27.658541 -164.70853 -0.29660517 172.56549 -0.29223937 172.57121 -26.033447 -44.601696
10257687687.688 -27.526457 -165.18143 -0.2993862 171.73015 -0.29461092 171.73268 -25.853458 -45.463326
10297717717.718 -27.405972 -166.47856 -0.30074787 170.90221 -0.29820243 170.90118 -25.691481 -46.192268
10337747747.748 -27.17531 -167.90637 -0.30377448 170.0645 -0.30053785 170.06468 -25.511585 -46.541683
10377777777.778 -26.967785 -168.58545 -0.30658343 169.22614 -0.30247569 169.23624 -25.409252 -47.181015
10417807807.808 -26.832479 -169.09996 -0.30850732 168.39079 -0.30567375 168.39795 -25.29159 -48.070496
10457837837.838 -26.764694 -169.8295 -0.31187558 167.54431 -0.3069807 167.54901 -25.195438 -48.96587
10497867867.868 -26.603985 -171.31819 -0.31320831 166.70682 -0.30962664 166.70335 -25.093988 -49.608463
10537897897.898 -26.391418 -172.01207 -0.31585416 165.85742 -0.3131488 165.86749 -24.961241 -50.649715
10577927927.928 -26.262484 -172.47809 -0.31832665 165.01141 -0.31470624 165.01714 -24.855654 -51.635502
10617957957.958 -26.162642 -173.29822 -0.32176444 164.16202 -0.31828904 164.16318 -24.793608 -52.142937
10657987987.988 -26.064245 -174.26721 -0.32461745 163.30623 -0.32008687 163.31357 -24.679495 -52.862774
10698018018.018 -25.938658 -175.82457 -0.32728752 162.45314 -0.32209814 162.45683 -24.577765 -53.533463
10738048048.048 -25.792137 -177.11748 -0.32965568 161.59837 -0.32514608 161.60202 -24.48241 -54.055851
10778078078.078 -25.623074 -177.89867 -0.33351555 160.73909 -0.32782263 160.74242 -24.41024 -54.672951
10818108108.108 -25.469831 -178.66806 -0.33583033 159.8815 -0.33046788 159.88884 -24.29776 -55.608604
10858138138.138 -25.329226 -179.5527 -0.33788893 159.0173 -0.33430585 159.02605 -24.192596 -56.473015
10898168168.168 -25.164808 179.33566 -0.34082505 158.15546 -0.33571932 158.15628 -24.137871 -56.886253
10938198198.198 -25.033943 178.47353 -0.3426902 157.28241 -0.33855602 157.29504 -24.06513 -57.307713
10978228228.228 -24.965767 177.31566 -0.34556794 156.41638 -0.34060442 156.41974 -24.004404 -57.795143
11018258258.258 -24.839874 175.97421 -0.34728146 155.53935 -0.34287566 155.54424 -23.993313 -58.230347
11058288288.288 -24.740341 175.36249 -0.35063925 154.66229 -0.34507659 154.66533 -23.971107 -58.870468
11098318318.318 -24.734079 174.51958 -0.35235226 153.78404 -0.34755233 153.7831 -23.935068 -59.446053
11138348348.348 -24.700911 172.89052 -0.35489142 152.89948 -0.35093841 152.90352 -23.859653 -59.802513
11178378378.378 -24.592903 171.64122 -0.35677835 152.01222 -0.35308194 152.01846 -23.856638 -60.255478
11218408408.408 -24.531071 170.57426 -0.3597765 151.12297 -0.35443217 151.13445 -23.826305 -60.620308
11258438438.438 -24.479542 168.81071 -0.36195678 150.23506 -0.3580451 150.23952 -23.797255 -60.850742
11298468468.468 -24.346794 167.25929 -0.36383948 149.34644 -0.36094457 149.35051 -23.777657 -61.297951
11338498498.498 -24.254454 166.51346 -0.36618313 148.4595 -0.36134344 148.46368 -23.79439 -61.932045
11378528528.529 -24.259089 165.50407 -0.36853287 147.56679 -0.36470172 147.56865 -23.751581 -62.458439
11418558558.559 -24.174417 163.80309 -0.37193224 146.66161 -0.36697996 146.66797 -23.727818 -62.691807
11458588588.589 -24.079983 162.53329 -0.37388021 145.76494 -0.3688778 145.77156 -23.714491 -63.056244
11498618618.619 -24.041632 161.26585 -0.37646279 144.85715 -0.37166154 144.86203 -23.68763 -63.211296
11538648648.649 -23.987112 159.842 -0.37827834 143.94302 -0.37459493 143.95279 -23.690802 -63.629696
11578678678.679 -23.963657 158.62024 -0.38092089 143.0273 -0.37650061 143.03514 -23.721594 -63.793751
11618708708.709 -24.000397 157.17995 -0.38328737 142.11726 -0.37891269 142.12166 -23.75668 -63.83247
11658738738.739 -24.010027 155.20262 -0.38456386 141.194 -0.38151887 141.19315 -23.811264 -63.87698
11698768768.769 -23.943731 153.37357 -0.387189 140.26843 -0.38441792 140.27208 -23.7812 -63.847023
11738798798.799 -23.865051 151.67137 -0.38913929 139.34567 -0.38578245 139.34602 -23.766769 -63.76899
11778828828.829 -23.837807 150.30606 -0.39265403 138.41451 -0.38846919 138.41898 -23.768097 -63.642693
11818858858.859 -23.846222 149.13475 -0.39458296 137.48485 -0.38978517 137.49313 -23.82966 -63.648067
11858888888.889 -23.916149 147.37234 -0.39544028 136.56317 -0.39203635 136.56354 -23.910885 -63.678093
11898918918.919 -24.003254 145.61766 -0.39749187 135.61375 -0.39384937 135.62585 -23.957045 -63.4305
11938948948.949 -24.034321 143.41684 -0.40134865 134.67508 -0.39757869 134.68127 -23.985281 -63.225708
11978978978.979 -24.068438 141.08398 -0.40267536 133.73051 -0.39891329 133.73784 -24.001734 -62.675396
12019009009.009 -24.039356 138.88246 -0.40537056 132.7798 -0.40127882 132.78391 -23.984442 -62.103092
12059039039.039 -24.001375 136.80531 -0.40851223 131.81708 -0.40404251 131.82901 -23.979626 -61.530716
12099069069.069 -24.014729 134.73535 -0.41009545 130.86208 -0.40513727 130.86775 -24.029369 -60.948162
12139099099.099 -24.056234 132.5746 -0.41348994 129.89629 -0.40768275 129.90346 -24.107264 -60.519253
12179129129.129 -24.097345 130.53775 -0.41490778 128.92125 -0.41040871 128.93332 -24.188269 -60.054939
12219159159.159 -24.148252 128.30505 -0.4170934 127.94952 -0.41276994 127.9598 -24.23954 -59.845551
12259189189.189 -24.138889 125.82348 -0.41878405 126.97786 -0.4156267 126.99025 -24.260822 -59.426739
12299219219.219 -24.109245 123.30539 -0.42168614 126.00277 -0.41751912 126.01768 -24.25812 -58.624329
12339249249.249 -24.1105 120.91316 -0.42504346 125.02602 -0.41965759 125.03799 -24.233543 -57.806526
12379279279.279 -24.082848 118.02119 -0.4262746 124.04611 -0.42183134 124.05367 -24.21813 -56.815739
12419309309.309 -24.05249 115.41756 -0.42942801 123.05592 -0.4252924 123.06415 -24.21636 -55.558582
12459339339.339 -24.020969 113.08021 -0.43065667 122.06519 -0.42713648 122.06854 -24.298954 -54.63987
12499369369.369 -24.091415 110.5772 -0.43426153 121.06464 -0.42952231 121.07452 -24.309816 -54.168858
12539399399.399 -24.098692 108.28199 -0.43662521 120.05197 -0.43229774 120.07059 -24.298889 -53.680126
12579429429.429 -24.084408 105.64678 -0.43944529 119.04248 -0.43458253 119.0571 -24.269438 -52.586693
12619459459.459 -24.075752 102.81567 -0.44176421 118.03342 -0.43736893 118.04437 -24.211039 -51.658958
12659489489.489 -24.001558 100.13222 -0.44410101 117.02069 -0.44021037 117.03465 -24.113932 -50.78154
12699519519.52 -23.963617 97.473953 -0.44746941 116.01216 -0.44281092 116.01362 -24.027714 -49.38802
12739549549.55 -23.951813 94.693466 -0.44938838 114.98878 -0.44506052 114.99208 -24.034977 -48.174168
12779579579.58 -23.989996 91.945122 -0.45251754 113.96124 -0.44811797 113.97128 -23.96335 -47.337532
12819609609.61 -23.937988 88.699066 -0.45469028 112.93334 -0.44979894 112.9454 -23.870028 -46.384865
12859639639.64 -23.846546 85.70182 -0.45792422 111.90318 -0.45370564 111.91477 -23.702988 -45.479809
12899669669.67 -23.76264 82.938225 -0.4618201 110.86697 -0.45630077 110.88154 -23.57851 -44.544907
12939699699.7 -23.69618 80.19754 -0.46428582 109.83191 -0.46035752 109.83611 -23.47946 -43.829548
12979729729.73 -23.640394 77.158234 -0.46849075 108.78566 -0.4633595 108.80602 -23.357534 -42.83923
13019759759.76 -23.587831 74.07048 -0.47123408 107.73593 -0.46600276 107.75359 -23.245272 -41.972679
13059789789.79 -23.487724 70.969826 -0.47443646 106.68074 -0.46955025 106.69273 -23.117483 -41.39402
13099819819.82 -23.306534 68.216797 -0.47747016 105.6273 -0.47197682 105.6405 -23.018229 -40.748276
13139849849.85 -23.211672 65.988991 -0.48071015 104.56171 -0.47592431 104.57903 -22.908468 -40.286144
13179879879.88 -23.160948 63.448784 -0.48323262 103.49509 -0.47897553 103.50786 -22.802795 -39.894379
13219909909.91 -23.03241 60.294437 -0.48703197 102.4273 -0.48221779 102.44318 -22.668041 -39.629028
13259939939.94 -22.864601 57.628056 -0.4893052 101.36479 -0.48573428 101.36608 -22.500977 -39.058254
13299969969.97 -22.772902 55.173134 -0.49272883 100.28987 -0.48925129 100.29498 -22.340014 -38.428524
13340000000 -22.640984 52.164436 -0.49736631 99.206635 -0.49352515 99.222137 -22.210566 -38.212231
13380030030.03 -22.460049 49.8573 -0.50023657 98.12722 -0.4967359 98.143333 -22.091305 -37.969498
13420060060.06 -22.361109 47.686089 -0.50511092 97.039986 -0.49984244 97.055115 -21.93388 -37.736599
13460090090.09 -22.245556 45.142559 -0.50837481 95.949844 -0.50463724 95.959007 -21.823837 -37.624424
13500120120.12 -22.072123 42.994137 -0.511778 94.856934 -0.50737935 94.868889 -21.710867 -37.632755
13540150150.15 -21.980453 40.916695 -0.51534939 93.751755 -0.51186299 93.759651 -21.548233 -37.628468
13580180180.18 -21.902517 38.513908 -0.51951188 92.647141 -0.5160321 92.655052 -21.396925 -37.496807
13620210210.21 -21.751524 36.050053 -0.52290279 91.537506 -0.51917201 91.545074 -21.335205 -37.364799
13660240240.24 -21.638597 33.916363 -0.52745336 90.420471 -0.52332473 90.42852 -21.227514 -37.496502
13700270270.27 -21.538368 31.822906 -0.53056383 89.305611 -0.52630627 89.317787 -21.075739 -37.77702
13740300300.3 -21.412903 29.812986 -0.53443176 88.185493 -0.53033161 88.198853 -20.996689 -37.996334
13780330330.33 -21.34454 28.012745 -0.53842008 87.066948 -0.53501642 87.070518 -20.920183 -38.400928
13820360360.36 -21.29327 26.012226 -0.54270124 85.942589 -0.5393306 85.938805 -20.808847 -38.78883
13860390390.39 -21.198933 23.783369 -0.5461309 84.80545 -0.54181349 84.814507 -20.726482 -39.120697
13900420420.42 -21.081974 21.607103 -0.55031151 83.673058 -0.54665285 83.680244 -20.64253 -39.516411
13940450450.45 -20.956669 19.873468 -0.55342281 82.529724 -0.54931027 82.539665 -20.526634 -40.025463
13980480480.48 -20.85022 18.031483 -0.55748099 81.394791 -0.55283833 81.407036 -20.383457 -40.52903
14020510510.511 -20.787022 16.284231 -0.56085342 80.250412 -0.55743951 80.251198 -20.345503 -40.784283
14060540540.541 -20.769148 14.284023 -0.56500787 79.091293 -0.56130522 79.099525 -20.323814 -41.335579
14100570570.571 -20.714037 12.054706 -0.5689491 77.935722 -0.56514257 77.937531 -20.252968 -42.036579
14140600600.601 -20.600035 10.130227 -0.57205576 76.772949 -0.56752992 76.78083 -20.182299 -42.413445
14180630630.631 -20.505671 8.3565912 -0.57499564 75.612999 -0.57209444 75.621864 -20.140368 -42.950459
14220660660.661 -20.449253 6.8468194 -0.57949114 74.445892 -0.5763182 74.452141 -20.093973 -43.91378
14260690690.691 -20.410055 5.2559152 -0.58264798 73.272926 -0.57900041 73.281357 -20.039165 -44.708649
14300720720.721 -20.359694 3.3812935 -0.58619404 72.103592 -0.58239692 72.108734 -20.014172 -45.212139
14340750750.751 -20.312502 1.7774203 -0.58926237 70.922707 -0.58584446 70.929237 -20.006495 -45.974903
14380780780.781 -20.27944 0.21082519 -0.59267408 69.731873 -0.58922529 69.74691 -19.952513 -46.864719
14420810810.811 -20.240189 -1.4921321 -0.59629399 68.548035 -0.59243435 68.561012 -19.884478 -47.466541
14460840840.841 -20.209574 -2.9331501 -0.59885776 67.364693 -0.59604514 67.370499 -19.917976 -47.887524
14500870870.871 -20.23826 -4.3218298 -0.60385722 66.164886 -0.60017216 66.166725 -19.950768 -48.785465
14540900900.901 -20.260859 -6.0123162 -0.60738432 64.948982 -0.60473961 64.957497 -19.952145 -49.75782
14580930930.931 -20.259022 -7.6892853 -0.61034077 63.738152 -0.60725361 63.754524 -19.976013 -50.446095
14620960960.961 -20.292028 -9.0652218 -0.6132974 62.517597 -0.61054838 62.531925 -20.027 -51.221626
14660990990.991 -20.341364 -10.66089 -0.61703897 61.292576 -0.61343187 61.312336 -20.071589 -52.289139
14701021021.021 -20.337332 -12.475396 -0.62091094 60.06131 -0.61694229 60.074841 -20.075916 -53.16745
14741051051.051 -20.327278 -13.731135 -0.62372035 58.827744 -0.62108779 58.842819 -20.10602 -54.00082
14781081081.081 -20.383068 -14.932716 -0.62601721 57.598679 -0.6230495 57.613529 -20.187532 -55.042999
14821111111.111 -20.443745 -16.400715 -0.63101184 56.355843 -0.62720138 56.375507 -20.234154 -56.168297
14861141141.141 -20.521437 -17.684103 -0.63350159 55.12429 -0.62884188 55.136158 -20.351805 -56.929749
14901171171.171 -20.653784 -18.952827 -0.6373688 53.876011 -0.63283849 53.885426 -20.511198 -58.048317
14941201201.201 -20.766539 -20.798342 -0.64028209 52.599438 -0.63816386 52.618752 -20.593824 -59.452869
14981231231.231 -20.773005 -22.390724 -0.64418334 51.332275 -0.63996953 51.341202 -20.650501 -60.582878
15021261261.261 -20.783377 -23.338081 -0.64706457 50.052383 -0.6426487 50.064598 -20.741728 -61.503326
15061291291.291 -20.881924 -24.299809 -0.65006799 48.77002 -0.64674944 48.779259 -20.847973 -62.783447
15101321321.321 -21.036276 -25.573635 -0.65388262 47.485279 -0.65010947 47.491966 -20.940582 -63.925114
15141351351.351 -21.169727 -27.077101 -0.65794212 46.197895 -0.65417212 46.206249 -21.082956 -64.647186
15181381381.381 -21.310213 -28.29767 -0.65908474 44.892418 -0.6562292 44.904366 -21.299721 -65.299088
15221411411.411 -21.481707 -29.550657 -0.66292143 43.58939 -0.66018784 43.600552 -21.517458 -66.725304
15261441441.441 -21.608086 -30.569502 -0.66609973 42.276421 -0.66341031 42.289158 -21.695429 -68.060028
15301471471.471 -21.758335 -31.242092 -0.67000031 40.953896 -0.66608524 40.968567 -21.887251 -69.247849
15341501501.502 -22.021862 -32.341328 -0.675282 39.635952 -0.67275882 39.643784 -22.063633 -70.730576
15381531531.532 -22.228992 -34.043957 -0.67795759 38.29528 -0.6749149 38.306141 -22.238321 -71.561073
15421561561.562 -22.313198 -35.35638 -0.68256402 36.949947 -0.67887276 36.969662 -22.458309 -72.29763
15461591591.592 -22.502792 -35.912231 -0.68662983 35.608398 -0.68276876 35.617226 -22.700445 -73.535072
15501621621.622 -22.80724 -36.419708 -0.69041598 34.257668 -0.68603921 34.26931 -22.966148 -74.958817
15541651651.652 -23.063368 -37.200668 -0.69482481 32.892876 -0.69057322 32.897987 -23.268091 -76.052483
15581681681.682 -23.429787 -37.38353 -0.69761097 31.536043 -0.69325978 31.534311 -23.657791 -77.069122
15621711711.712 -23.880775 -38.628891 -0.70310229 30.161121 -0.69924116 30.167601 -23.980265 -78.480804
15661741741.742 -24.153297 -40.276501 -0.70836401 28.771605 -0.70515043 28.77725 -24.278065 -79.48716
15701771771.772 -24.409256 -40.566292 -0.71042442 27.369211 -0.70765227 27.382771 -24.659361 -79.880981
15741801801.802 -24.846729 -40.752407 -0.71630073 25.97871 -0.7124263 25.990511 -25.120161 -81.113403
15781831831.832 -25.290512 -41.483585 -0.722826 24.571287 -0.71840852 24.583286 -25.527864 -82.619514
15821861861.862 -25.710072 -41.461922 -0.72666591 23.15501 -0.72272938 23.170725 -25.966553 -82.989685
15861891891.892 -26.421354 -41.721516 -0.7316699 21.742592 -0.72820848 21.749084 -26.54351 -83.363327
15901921921.922 -27.062674 -43.249409 -0.73870564 20.324877 -0.73430169 20.332571 -27.157328 -84.74205
15941951951.952 -27.413319 -44.087265 -0.74368197 18.883944 -0.73980981 18.896133 -27.669857 -85.643379
15981981981.982 -27.984474 -43.619602 -0.75127697 17.439835 -0.74681419 17.447451 -28.076872 -85.976646
16022012012.012 -28.780592 -44.093956 -0.75677401 15.982581 -0.75312907 15.99017 -28.684679 -85.289207
16062042042.042 -29.41674 -44.673328 -0.76397496 14.516216 -0.75922841 14.518274 -29.470043 -85.188385
16102072072.072 -30.160465 -43.359604 -0.77059954 13.032629 -0.76659924 13.042216 -30.153728 -84.760788
16142102102.102 -31.290285 -41.918667 -0.77807611 11.554113 -0.77360767 11.561409 -30.927517 -82.404816
16182132132.132 -32.48716 -41.711868 -0.78553271 10.066009 -0.78119975 10.078089 -32.111721 -79.81958
16222162162.162 -33.501144 -38.956745 -0.7921496 8.5743465 -0.78764373 8.5843935 -33.290939 -77.877869
16262192192.192 -34.872013 -35.162888 -0.80094075 7.0759163 -0.79665768 7.0775127 -34.234272 -75.70179
16302222222.222 -36.486393 -31.686901 -0.80902797 5.5614662 -0.80504853 5.5692239 -35.222183 -70.30381
16342252252.252 -37.638283 -25.601149 -0.81725281 4.042645 -0.81235284 4.0486488 -36.410378 -62.583187
16382282282.282 -38.999844 -12.156311 -0.8264243 2.520483 -0.82164252 2.5206337 -37.424591 -54.437527
16422312312.312 -40.697117 6.7045465 -0.83514714 0.97797799 -0.8317318 0.98622 -37.810638 -42.767498
16462342342.342 -41.657288 26.502306 -0.84416038 -0.56562757 -0.8405422 -0.56121016 -37.704849 -27.527487
16502372372.372 -41.013107 44.161102 -0.85532641 -2.1274679 -0.85105997 -2.1229804 -37.177246 -14.882723
16542402402.402 -39.420185 56.698994 -0.86485302 -3.7001116 -0.86129743 -3.6948519 -36.45853 -4.6599016
16582432432.432 -38.170307 64.965637 -0.87617445 -5.2908087 -0.87137777 -5.2842474 -35.710506 3.6877937
16622462462.462 -36.685688 67.86924 -0.88710666 -6.8856621 -0.88217419 -6.8751593 -34.891144 9.3434772
16662492492.492 -34.967728 70.256363 -0.89699 -8.4874916 -0.89262581 -8.4751558 -33.775074 12.793739
16702522522.523 -33.549175 75.006554 -0.90891194 -10.101361 -0.90491265 -10.093234 -32.618019 15.219342
16742552552.553 -32.476002 77.848534 -0.91881627 -11.718456 -0.91559851 -11.699973 -31.468979 17.831032
16782582582.583 -31.529684 79.928085 -0.93087089 -13.344253 -0.92897767 -13.337724 -30.564707 18.488729
16822612612.613 -30.82448 82.436005 -0.94596118 -14.988495 -0.94241548 -14.981582 -29.746632 18.751986
16862642642.643 -30.458607 81.595146 -0.95717233 -16.638067 -0.95445424 -16.631693 -29.017895 20.36828
16902672672.673 -29.891773 77.991882 -0.97094548 -18.3057 -0.96741879 -18.296047 -28.547882 22.090578
16942702702.703 -28.994375 76.312233 -0.98447245 -19.989498 -0.98153925 -19.975863 -28.187859 21.890247
16982732732.733 -28.307426 76.578514 -0.99776351 -21.669907 -0.99405909 -21.654432 -27.563744 20.627575
17022762762.763 -27.784418 77.038445 -1.0132973 -23.378607 -1.0085891 -23.365273 -26.990177 19.36632
17062792792.793 -27.259842 77.201294 -1.0264586 -25.090199 -1.0239092 -25.086334 -26.410755 17.534458
17102822822.823 -26.920694 76.991646 -1.0419414 -26.830015 -1.0385239 -26.821739 -25.831758 16.272612
17142852852.853 -26.598301 75.012238 -1.0566626 -28.584421 -1.0540785 -28.579828 -25.259184 16.681284
17182882882.883 -26.107233 72.668388 -1.0718949 -30.338823 -1.0687658 -30.322287 -24.872133 17.284845
17222912912.913 -25.654346 71.610985 -1.0886571 -32.114056 -1.0854696 -32.095135 -24.650211 16.878321
17262942942.943 -25.385977 70.875046 -1.1045666 -33.88485 -1.1019491 -33.877617 -24.365423 15.517344
17302972972.973 -25.081751 69.789818 -1.1221275 -35.684868 -1.1185379 -35.67189 -24.069773 14.31822
17343003003.003 -24.814346 69.381065 -1.1393981 -37.489662 -1.1368057 -37.484592 -23.864086 12.503677
17383033033.033 -24.716896 68.773148 -1.156445 -39.321964 -1.1528748 -39.304882 -23.520021 10.334504
17423063063.063 -24.548141 66.643448 -1.1773602 -41.195644 -1.1733007 -41.17918 -23.133976 9.5997009
17463093093.093 -24.2939 64.891373 -1.195123 -43.06424 -1.1924394 -43.048508 -22.880146 9.4622707
17503123123.123 -24.115921 63.289886 -1.2144758 -44.939529 -1.2101454 -44.928905 -22.731323 8.5552635
17543153153.153 -23.951622 62.331421 -1.2348528 -46.852467 -1.2312093 -46.846954 -22.548405 6.7772722
17583183183.183 -23.858938 61.84362 -1.2554047 -48.779583 -1.2519181 -48.771381 -22.300234 5.4404211
17623213213.213 -23.927341 60.665619 -1.276734 -50.728642 -1.2727634 -50.717457 -22.195255 4.4666414
17663243243.243 -23.953884 59.01487 -1.2997853 -52.697445 -1.2951692 -52.688297 -22.096277 2.8998618
17703273273.273 -23.902542 57.620529 -1.3219192 -54.691185 -1.3187993 -54.682331 -21.842688 1.7257367
17743303303.303 -24.017111 55.912331 -1.3455397 -56.711372 -1.3421164 -56.704044 -21.686308 1.5087537
17783333333.333 -24.092268 53.436596 -1.3688118 -58.738712 -1.3654808 -58.729313 -21.64327 0.97450441
17823363363.363 -24.09704 51.705189 -1.3946193 -60.797272 -1.3909297 -60.783051 -21.558052 -0.16466868
17863393393.393 -24.261751 50.680344 -1.4191877 -62.877689 -1.4166287 -62.865719 -21.441591 -0.95202625
17903423423.423 -24.494087 48.235645 -1.4454554 -64.971642 -1.442506 -64.96257 -21.35647 -1.4032067
17943453453.453 -24.625549 46.331436 -1.4737158 -67.10614 -1.4699659 -67.110626 -21.322165 -1.9983985
17983483483.483 -24.855774 44.799168 -1.5016997 -69.282486 -1.4988759 -69.270554 -21.16437 -2.5098774
18023513513.514 -25.234125 42.320667 -1.5312605 -71.47657 -1.5285107 -71.468018 -21.073452 -2.2898242
18063543543.544 -25.499834 40.065735 -1.5632414 -73.712814 -1.5603213 -73.710114 -21.071758 -2.1840396
18103573573.574 -25.9842 38.680943 -1.595098 -75.974869 -1.5912715 -75.969032 -20.996666 -2.167011
18143603603.604 -26.653706 35.848255 -1.6291398 -78.26545 -1.6258695 -78.261047 -20.893173 -1.2964289
18183633633.634 -27.192881 32.692936 -1.6632732 -80.596298 -1.6615613 -80.586227 -20.886965 -0.33143154
18223663663.664 -28.024126 31.185581 -1.6975327 -82.950256 -1.6957127 -82.942436 -20.848093 0.17327279
18263693693.694 -29.336365 28.55397 -1.7374704 -85.334946 -1.7328099 -85.327049 -20.713146 1.4085876
18303723723.724 -30.561441 22.490803 -1.7760834 -87.752609 -1.7732675 -87.749115 -20.582573 3.0472226
18343753753.754 -31.840771 18.170088 -1.8187259 -90.226921 -1.8159692 -90.224121 -20.486734 4.369822
18383783783.784 -33.921101 14.448845 -1.8645809 -92.734283 -1.8615692 -92.736038 -20.249125 5.5919428
18423813813.814 -37.001999 4.7263751 -1.9113656 -95.295143 -1.9094471 -95.282845 -19.950409 7.590291
18463843843.844 -41.438576 -14.268599 -1.9624044 -97.90049 -1.9590306 -97.892052 -19.73074 10.015068
18503873873.874 -46.952293 -79.83799 -2.0131559 -100.5479 -2.0111787 -100.52861 -19.493296 11.622723
18543903903.904 -39.789124 -136.88618 -2.0704169 -103.22238 -2.067065 -103.22459 -19.11504 13.147219
18583933933.934 -34.663876 -150.28984 -2.1311612 -105.97474 -2.1279671 -105.98354 -18.673899 15.237706
18623963963.964 -31.183807 -158.03864 -2.1935141 -108.76334 -2.1909866 -108.75971 -18.24155 17.031172
18663993993.994 -28.519379 -162.78812 -2.2613378 -111.59634 -2.2574699 -111.59817 -17.753733 18.356041
18704024024.024 -26.46727 -166.90604 -2.33483 -114.50604 -2.331893 -114.49209 -17.186478 19.495493
18744054054.054 -24.667927 -170.7155 -2.413837 -117.44931 -2.4092746 -117.43974 -16.595205 20.704287
18784084084.084 -23.152851 -174.57249 -2.4966891 -120.4532 -2.4949131 -120.44383 -16.020706 21.569427
18824114114.114 -21.791914 -178.59685 -2.587049 -123.5103 -2.5837471 -123.49848 -15.448077 21.998137
18864144144.144 -20.56411 177.50066 -2.6835093 -126.62346 -2.681603 -126.62086 -14.82292 22.121586
18904174174.174 -19.406969 173.55295 -2.7893176 -129.81233 -2.7855768 -129.79987 -14.194808 22.262213
18944204204.204 -18.353603 169.68933 -2.9016707 -133.05348 -2.8988616 -133.04466 -13.598469 22.111549
18984234234.234 -17.405359 165.74739 -3.0213394 -136.35892 -3.0191844 -136.34918 -13.000674 21.552736
19024264264.264 -16.528015 161.5069 -3.1536515 -139.73296 -3.1506894 -139.71138 -12.392693 20.801765
19064294294.294 -15.675549 157.23633 -3.2947812 -143.15825 -3.2916846 -143.15871 -11.805541 19.910728
19104324324.324 -14.877094 152.83705 -3.4474213 -146.67159 -3.4448447 -146.6653 -11.23173 18.78035
19144354354.354 -14.110627 148.3974 -3.6131754 -150.22786 -3.6103344 -150.21785 -10.65731 17.446295
19184384384.384 -13.387552 143.98094 -3.7930071 -153.8492 -3.7901587 -153.8391 -10.092512 16.004293
19224414414.414 -12.715511 139.47952 -3.9836717 -157.52058 -3.9819126 -157.5143 -9.5575962 14.376209
19264444444.444 -12.071937 134.7587 -4.1912389 -161.24463 -4.1890907 -161.22469 -9.0230036 12.611739
19304474474.474 -11.440443 129.99185 -4.4177365 -165.01335 -4.4156961 -164.99583 -8.500906 10.808237
19344504504.505 -10.848459 125.30978 -4.6541882 -168.84007 -4.6524215 -168.82576 -8.0219307 8.8783236
19384534534.535 -10.309895 120.54574 -4.9100266 -172.685 -4.9075642 -172.68123 -7.5536408 6.7055607
19424564564.565 -9.8043795 115.61659 -5.186583 -176.59193 -5.1851969 -176.57246 -7.0914445 4.500988
19464594594.595 -9.3234062 110.5621 -5.4807925 179.48448 -5.4778032 179.4912 -6.6626196 2.2845001
19504624624.625 -8.8581457 105.37366 -5.7941909 175.51695 -5.7925162 175.53358 -6.2589374 -0.090897612
19544654654.655 -8.4034014 100.19358 -6.1312342 171.53072 -6.1298184 171.53922 -5.8633327 -2.5217469
19584684684.685 -7.9752884 95.095047 -6.4874034 167.53827 -6.4852819 167.55304 -5.4945049 -4.961731
19624714714.715 -7.5818033 89.962059 -6.8660927 163.52127 -6.8645658 163.53786 -5.1535449 -7.5525723
19664744744.745 -7.2087107 84.821671 -7.267396 159.53246 -7.2667346 159.55653 -4.8147073 -10.180943
19704774774.775 -6.8638849 79.697502 -7.690979 155.57858 -7.68683 155.60196 -4.4914412 -12.706584
19744804804.805 -6.5433712 74.478622 -8.1338463 151.61479 -8.1313553 151.64038 -4.2111454 -15.250759
19784834834.835 -6.229661 69.279648 -8.5977068 147.70665 -8.5958815 147.71935 -3.9407446 -17.894634
19824864864.865 -5.9417081 64.194496 -9.0852909 143.81966 -9.0839415 143.832 -3.6788168 -20.513493
19864894894.895 -5.6779308 59.090679 -9.5969038 139.97624 -9.5937157 139.9859 -3.4443727 -23.048782
19904924924.925 -5.4222293 54.02898 -10.125107 136.18199 -10.123542 136.20628 -3.2281625 -25.61455
19944954954.955 -5.1926007 49.095432 -10.6774 132.45578 -10.675997 132.47063 -3.0215297 -28.160261
19984984984.985 -4.9887719 44.125233 -11.246678 128.7771 -11.24433 128.79935 -2.8372705 -30.581032
20025015015.015 -4.7864175 39.135715 -11.834315 125.1582 -11.834108 125.17159 -2.6777649 -33.049973
20065045045.045 -4.5888238 34.299278 -12.443136 121.58599 -12.441902 121.60849 -2.5259652 -35.626465
20105075075.075 -4.4064612 29.594759 -13.069552 118.16214 -13.069448 118.16953 -2.3640108 -38.037804
20145105105.105 -4.2424121 24.975416 -13.715714 114.76718 -13.713649 114.78951 -2.2265422 -40.294247
20185135135.135 -4.0941577 20.400482 -14.376654 111.47018 -14.376697 111.47958 -2.1114483 -42.569267
20225165165.165 -3.9529474 15.848598 -15.052748 108.23017 -15.049552 108.22152 -1.9945844 -44.827671
20265195195.195 -3.8127155 11.428395 -15.752183 105.05025 -15.744405 105.0825 -1.8886368 -46.963856
20305225225.225 -3.6859844 7.1511755 -16.459068 102.03501 -16.458887 102.06122 -1.8004876 -49.01915
20345255255.255 -3.5737889 2.8974009 -17.185261 98.997017 -17.185459 99.002518 -1.7278106 -51.233826
20385285285.285 -3.4593077 -1.2396739 -17.929468 96.064255 -17.932999 96.071724 -1.6392587 -53.366467
20425315315.315 -3.3579669 -5.2733536 -18.695036 93.230385 -18.692879 93.249298 -1.5573885 -55.313274
20465345345.345 -3.2656837 -9.2613621 -19.472427 90.441849 -19.465803 90.463799 -1.4943709 -57.195068
20505375375.375 -3.1703353 -13.172601 -20.26067 87.763557 -20.262491 87.800774 -1.4326457 -59.0952
20545405405.405 -3.0823872 -16.946018 -21.070433 85.205215 -21.065832 85.235748 -1.3702967 -60.91581
20585435435.435 -3.001693 -20.638174 -21.89369 82.66555 -21.899405 82.675491 -1.3245617 -62.664383
20625465465.465 -2.9253421 -24.261904 -22.742393 80.198448 -22.745646 80.224831 -1.2845507 -64.484596
20665495495.495 -2.8544986 -27.840414 -23.617535 77.8424 -23.611418 77.842667 -1.2394761 -66.316917
20705525525.526 -2.7820961 -31.333544 -24.503557 75.530441 -24.500048 75.505219 -1.1943403 -67.99678
20745555555.556 -2.7141695 -34.705978 -25.413464 73.338608 -25.414898 73.320709 -1.1585165 -69.63485
20785585585.586 -2.6540074 -38.00478 -26.344812 71.178116 -26.350199 71.200348 -1.1232636 -71.295486
20825615615.616 -2.5939415 -41.294617 -27.305382 69.243225 -27.317251 69.214188 -1.0814091 -72.808678
20865645645.646 -2.5282321 -44.455235 -28.294003 67.308212 -28.286448 67.365021 -1.0542011 -74.286758
20905675675.676 -2.4703186 -47.506042 -29.286695 65.414864 -29.289072 65.45607 -1.0363827 -75.844727
20945705705.706 -2.4151633 -50.627567 -30.346731 63.708431 -30.329039 63.664413 -1.0046984 -77.365631
20985735735.736 -2.3455696 -53.575367 -31.397957 62.264915 -31.406269 62.180088 -0.97969872 -78.904633
21025765765.766 -2.2859204 -56.332947 -32.541843 60.609085 -32.522743 60.724659 -0.95566404 -80.365517
21065795795.796 -2.2409747 -59.134262 -33.655231 59.285538 -33.67849 59.271923 -0.93278033 -81.833069
21105825825.826 -2.1907582 -61.886898 -34.870766 58.186588 -34.863213 58.240353 -0.91151607 -83.221863
21145855855.856 -2.1430163 -64.580879 -36.109192 57.041126 -36.129444 57.037998 -0.89109594 -84.583191
21185885885.886 -2.0924089 -67.251259 -37.423412 56.004322 -37.416275 56.136925 -0.87074161 -85.999413
21225915915.916 -2.0369499 -69.807457 -38.740456 55.317612 -38.74995 55.566456 -0.84561062 -87.299622
21265945945.946 -1.9952389 -72.239693 -40.220924 54.995068 -40.192547 54.654762 -0.82882345 -88.545074
21305975975.976 -1.9615706 -74.714699 -41.821209 54.895443 -41.767471 54.794907 -0.81616622 -89.877174
21346006006.006 -1.9146004 -77.256569 -43.454491 55.017578 -43.430313 54.685936 -0.79799199 -91.163887
21386036036.036 -1.8618072 -79.62796 -45.143936 55.721325 -45.314816 56.111645 -0.78202844 -92.428574
21426066066.066 -1.8192989 -81.875313 -47.283535 57.45023 -47.16048 57.625603 -0.77360648 -93.73777
21466096096.096 -1.779165 -84.093155 -49.208511 59.703606 -49.394783 59.7673 -0.7569595 -95.052338
21506126126.126 -1.7473025 -86.251709 -51.820446 64.649437 -51.905682 64.496498 -0.73595613 -96.304375
21546156156.156 -1.7235805 -88.424477 -54.756271 73.299164 -54.790287 71.343178 -0.72201556 -97.470703
21586186186.186 -1.6910242 -90.72477 -57.978188 89.143272 -57.777073 86.087433 -0.7122122 -98.672523
21626216216.216 -1.6487077 -92.908836 -60.675537 111.50925 -60.600521 110.47483 -0.69888633 -99.947952
21666246246.246 -1.611147 -94.977074 -61.729305 143.99522 -60.584274 144.49297 -0.67830437 -101.08067
21706276276.276 -1.5791037 -97.027916 -59.638294 166.27769 -59.930832 167.63916 -0.67120862 -102.22976
21746306306.306 -1.5447439 -98.960159 -57.981079 -179.0576 -58.051743 -178.04472 -0.66620141 -103.41373
21786336336.336 -1.5264724 -100.91898 -56.578632 -169.70053 -56.668785 -171.76732 -0.65326786 -104.6219
21826366366.366 -1.5073552 -102.92193 -55.420479 -165.63016 -55.67852 -164.63118 -0.64431125 -105.77596
21866396396.396 -1.4846433 -104.97459 -54.830635 -161.52226 -54.679253 -161.29573 -0.63999265 -106.96959
21906426426.426 -1.4584965 -106.98461 -53.986446 -158.48676 -53.987289 -157.86565 -0.63058501 -108.19764
21946456456.456 -1.4303565 -108.93439 -53.656334 -154.3015 -53.585331 -154.01904 -0.61328131 -109.37012
21986486486.486 -1.4052721 -110.88091 -53.451843 -151.52594 -53.348145 -150.32942 -0.60109395 -110.49018
22026516516.517 -1.3759087 -112.74962 -53.283047 -146.12732 -53.236305 -147.6851 -0.59401661 -111.59789
22066546546.547 -1.3564013 -114.57559 -52.963531 -143.90298 -52.907433 -143.45123 -0.58679992 -112.74903
22106576576.577 -1.3428481 -116.46552 -52.87878 -139.0829 -52.747505 -138.90546 -0.57587367 -113.91469
22146606606.607 -1.3258991 -118.4345 -52.604099 -136.01717 -52.696705 -136.26878 -0.56615722 -115.064
22186636636.637 -1.2964135 -120.3255 -52.616898 -132.94545 -52.471943 -133.48752 -0.55619562 -116.18504
22226666666.667 -1.271335 -122.17035 -52.265476 -127.13551 -52.374321 -127.38613 -0.54910672 -117.3454
22266696696.697 -1.2508183 -123.93523 -52.136742 -121.66489 -52.128345 -122.38094 -0.54172695 -118.48317
22306726726.727 -1.2323623 -125.67749 -51.802841 -118.75275 -51.959225 -118.00014 -0.53207481 -119.61562
22346756756.757 -1.2263837 -127.42261 -51.553623 -114.76562 -51.656734 -114.05513 -0.52004439 -120.76045
22386786786.787 -1.2242903 -129.3342 -51.258602 -109.53214 -51.261047 -109.64053 -0.51015317 -121.83156
22426816816.817 -1.2019564 -131.28001 -50.923317 -104.59875 -50.825336 -105.2531 -0.50564283 -122.93736
22466846846.847 -1.1727113 -133.0697 -50.335239 -102.66607 -50.315521 -102.21722 -0.49921399 -124.0658
22506876876.877 -1.1555626 -134.80885 -49.822613 -98.602753 -49.794033 -99.062439 -0.49207562 -125.20748
22546906906.907 -1.1400207 -136.521 -49.251984 -95.550003 -49.230778 -96.260925 -0.49035558 -126.36652
22586936936.937 -1.1336509 -138.25334 -48.755119 -92.672882 -48.856979 -93.130066 -0.48257908 -127.57021
22626966966.967 -1.1332046 -140.06841 -48.253738 -90.376114 -48.245922 -91.659004 -0.46900606 -128.7326
22666996996.997 -1.1221282 -141.9169 -47.72366 -89.55484 -47.705379 -89.869682 -0.46035635 -129.82695
22707027027.027 -1.1054983 -143.70993 -47.144852 -88.398163 -47.105289 -88.040535 -0.45558053 -130.92491
22747057057.057 -1.0939834 -145.46005 -46.599239 -87.02002 -46.663715 -87.06031 -0.44548845 -132.07339
22787087087.087 -1.082962 -147.21239 -46.140438 -86.260139 -46.228222 -86.112137 -0.43673855 -133.17181
22827117117.117 -1.0730772 -148.91623 -45.799076 -85.19767 -45.75695 -84.493416 -0.43455076 -134.25456
22867147147.147 -1.0753663 -150.68124 -45.272793 -84.33123 -45.219532 -84.601959 -0.43395686 -135.44327
22907177177.177 -1.0693001 -152.54791 -44.81963 -84.369316 -44.832241 -83.746368 -0.42526898 -136.63841
22947207207.207 -1.0503135 -154.32857 -44.40052 -83.741341 -44.321838 -84.041962 -0.41269737 -137.78424
22987237237.237 -1.0413711 -156.01515 -43.979633 -84.396263 -43.974838 -83.938896 -0.40457067 -138.88733
23027267267.267 -1.0442433 -157.77599 -43.568134 -83.976563 -43.614212 -83.985397 -0.4010568 -139.98227
23067297297.297 -1.0380623 -159.5936 -43.195572 -84.322639 -43.235275 -83.980637 -0.39847916 -141.15369
23107327327.327 -1.0292625 -161.3886 -42.878201 -84.829712 -42.884464 -84.850273 -0.39092818 -142.28889
23147357357.357 -1.0191869 -163.1636 -42.560612 -85.435402 -42.526348 -85.45282 -0.38770467 -143.41512
23187387387.387 -1.0014708 -164.86725 -42.315392 -85.444214 -42.286266 -85.246521 -0.38692695 -144.62163
23227417417.417 -0.9953301 -166.52831 -41.946922 -86.12606 -41.904823 -86.116707 -0.3754085 -145.83508
23267447447.447 -0.99740034 -168.2386 -41.662155 -86.821968 -41.606125 -86.512253 -0.35946098 -146.95963
23307477477.477 -0.99545252 -170.01059 -41.386353 -87.274124 -41.369564 -87.344498 -0.35414287 -148.05507
23347507507.508 -0.98845762 -171.77625 -41.092335 -88.080185 -41.130032 -87.961456 -0.34875441 -149.17419
23387537537.538 -0.98128515 -173.50365 -40.840382 -88.98423 -40.811745 -88.654083 -0.34118375 -150.27844
23427567567.568 -0.97363508 -175.27229 -40.565765 -89.697891 -40.626591 -89.335442 -0.33899596 -151.37791
23467597597.598 -0.95698392 -176.94562 -40.358154 -90.470993 -40.389179 -90.617615 -0.33566171 -152.53709
23507627627.628 -0.9456358 -178.54257 -40.172874 -91.471809 -40.162609 -91.586838 -0.32926556 -153.72433
23547657657.658 -0.9501847 179.83337 -39.962086 -92.399849 -39.963428 -92.412285 -0.31742537 -154.86043
23587687687.688 -0.95514572 178.11108 -39.744305 -93.395332 -39.773926 -93.030556 -0.30919605 -155.98032
23627717717.718 -0.94857156 176.33699 -39.582565 -94.405418 -39.569378 -94.158035 -0.29932907 -157.05334
23667747747.748 -0.93754607 174.59413 -39.419315 -95.013039 -39.411953 -94.984291 -0.29647213 -158.12175
23707777777.778 -0.92041069 172.96663 -39.252598 -96.231232 -39.268513 -96.214714 -0.29702702 -159.24144
23747807807.808 -0.90729874 171.43735 -39.102013 -97.192039 -39.126808 -97.482948 -0.29145449 -160.36276
23787837837.838 -0.90542918 169.93204 -38.950996 -98.223 -38.935871 -98.445053 -0.28542936 -161.47884
23827867867.868 -0.91077983 168.34708 -38.820042 -99.235504 -38.798489 -99.274239 -0.28363478 -162.62415
23867897897.898 -0.90408313 166.67728 -38.639988 -100.50517 -38.706421 -100.37029 -0.27280402 -163.76816
23907927927.928 -0.89394546 165.09131 -38.564514 -101.56243 -38.564602 -101.41498 -0.25915146 -164.82143
23947957957.958 -0.89036691 163.49988 -38.443409 -102.57056 -38.445255 -102.6823 -0.2549895 -165.86972
23987987987.988 -0.87878376 161.86455 -38.353905 -103.56801 -38.363758 -103.49734 -0.2525813 -166.97522
24028018018.018 -0.85541344 160.43367 -38.267109 -104.60379 -38.245293 -104.3241 -0.23962092 -168.02567
24068048048.048 -0.86451471 159.00674 -38.173565 -105.56361 -38.131634 -105.68701 -0.23016633 -169.03081
24108078078.078 -0.87202257 157.36217 -38.061207 -106.60528 -38.06509 -106.88178 -0.22922914 -170.04071
24148108108.108 -0.84506875 155.78496 -37.98592 -107.81113 -37.992546 -107.65579 -0.22525249 -171.09062
24188138138.138 -0.82850015 154.43221 -37.882439 -108.69436 -37.893219 -108.80096 -0.2145882 -172.10233
24228168168.168 -0.83024758 153.02805 -37.83469 -109.83031 -37.869747 -109.79713 -0.20948982 -173.08646
24268198198.198 -0.8173781 151.55019 -37.755573 -110.84058 -37.771534 -110.83101 -0.20706736 -174.07587
24308228228.228 -0.80522114 150.20195 -37.692509 -112.01314 -37.687649 -112.05426 -0.2012153 -175.16165
24348258258.258 -0.80772054 148.7731 -37.641903 -112.88934 -37.614269 -112.9244 -0.18913867 -176.14668
24388288288.288 -0.78589624 147.26003 -37.565857 -113.87776 -37.544609 -113.9859 -0.17776021 -177.04086
24428318318.318 -0.75264847 146.04822 -37.549828 -115.03423 -37.501495 -114.90922 -0.18192977 -178.01584
24468348348.348 -0.75754476 144.92004 -37.486137 -116.16832 -37.474979 -116.0643 -0.17721064 -179.03336
24508378378.378 -0.76790303 143.48415 -37.416313 -116.81102 -37.452156 -117.14925 -0.16535807 179.99069
24548408408.408 -0.74247146 142.08281 -37.400253 -118.01801 -37.368027 -118.17134 -0.15693523 179.14081
24588438438.438 -0.72143364 140.91969 -37.353779 -119.19542 -37.364349 -119.08468 -0.15321004 178.2299
24628468468.468 -0.71577078 139.72115 -37.283432 -120.10356 -37.323254 -119.97839 -0.14579064 177.2903
24668498498.498 -0.70400202 138.48575 -37.295444 -121.11184 -37.275951 -120.85876 -0.13606219 176.45428
24708528528.529 -0.69477528 137.26422 -37.259998 -122.08995 -37.228226 -122.02219 -0.13556488 175.6187
24748558558.559 -0.68837631 136.02672 -37.194397 -123.24632 -37.250305 -122.98678 -0.13889408 174.66124
24788588588.589 -0.66954488 134.77847 -37.207417 -124.33865 -37.219498 -123.96426 -0.13155751 173.70146
24828618618.619 -0.64571637 133.72055 -37.167995 -124.81686 -37.161903 -124.84573 -0.1168688 172.85231
24868648648.649 -0.64234591 132.69418 -37.145885 -126.12778 -37.163353 -125.72923 -0.11150531 172.08005
24908678678.679 -0.64389992 131.51007 -37.090805 -126.89712 -37.136959 -126.66112 -0.10771883 171.28777
24948708708.709 -0.62485337 130.3716 -37.135468 -127.58984 -37.081547 -127.80408 -0.1066599 170.49171
24988738738.739 -0.61056924 129.3325 -37.130356 -128.4588 -37.125439 -128.87901 -0.11098187 169.71338
25028768768.769 -0.60649186 128.28893 -37.106636 -129.50703 -37.089451 -129.30684 -0.11630668 168.84583
25068798798.799 -0.59447432 127.21891 -37.11631 -130.15976 -37.095219 -130.31226 -0.11085918 167.95822
25108828828.829 -0.57343417 126.21896 -37.056942 -131.26033 -37.076889 -131.08543 -0.098831184 167.17471
25148858858.859 -0.56847376 125.31568 -37.047661 -132.20244 -37.054588 -132.23369 -0.096851856 166.43906
25188888888.889 -0.56760341 124.30836 -37.07634 -133.12141 -37.081512 -133.03574 -0.09342961 165.70189
25228918918.919 -0.55644369 123.29564 -36.998608 -134.02116 -37.027016 -133.69312 -0.091083169 164.95561
25268948948.949 -0.55157137 122.33963 -37.016964 -134.59612 -37.030514 -134.70969 -0.095259994 164.22597
25308978978.979 -0.5541659 121.31409 -37.014229 -135.45927 -37.075016 -135.75233 -0.10327737 163.43556
25349009009.009 -0.53580093 120.31947 -37.073181 -136.66055 -37.041634 -136.32101 -0.10108908 162.62981
25389039039.039 -0.51573706 119.44175 -37.046761 -137.40089 -37.055771 -137.27895 -0.10006727 161.87138
25429069069.069 -0.51019424 118.55566 -37.026039 -137.89247 -37.002838 -138.12651 -0.097721212 161.08443
25469099099.099 -0.4971672 117.68573 -37.002399 -138.97507 -37.009823 -138.91 -0.085047059 160.3093
25509129129.129 -0.4861196 116.87318 -37.059826 -139.72325 -37.022671 -139.55351 -0.075386159 159.71667
25549159159.159 -0.49280596 116.04118 -37.046188 -140.60216 -37.02478 -140.55563 -0.079926513 159.10808
25589189189.189 -0.49355674 115.02873 -37.054482 -141.51077 -37.010517 -141.60089 -0.089223102 158.3763
25629219219.219 -0.46605808 114.07759 -37.01376 -142.01819 -37.02813 -142.0752 -0.08875332 157.64536
25669249249.249 -0.44935998 113.35601 -37.052685 -143.02528 -37.032578 -142.84647 -0.089290217 156.93065
25709279279.279 -0.44796357 112.60442 -36.997772 -143.70854 -37.028141 -143.58405 -0.094901472 156.19899
25749309309.309 -0.44120228 111.8237 -37.022133 -144.48483 -37.037663 -144.4312 -0.096745975 155.39722
25789339339.339 -0.43819952 111.04625 -36.989044 -145.41524 -37.031853 -145.25896 -0.085642107 154.65996
25829369369.369 -0.43564752 110.19535 -37.046581 -145.87407 -37.021351 -146.13425 -0.075843431 154.07565
25869399399.399 -0.41855487 109.38667 -37.057438 -146.79852 -37.026855 -146.72357 -0.073960647 153.48436
25909429429.429 -0.40450731 108.68188 -37.039295 -147.44366 -37.031925 -147.25034 -0.079926781 152.85799
25949459459.459 -0.40714794 107.96631 -37.041042 -148.25266 -37.068806 -147.96819 -0.080926724 152.21393
25989489489.489 -0.40447348 107.17252 -37.038673 -148.64664 -37.025784 -148.93665 -0.08390893 151.5722
26029519519.52 -0.39011648 106.41595 -37.013271 -149.51312 -37.011189 -149.58928 -0.087366208 150.88333
26069549549.55 -0.37768871 105.73082 -37.044411 -150.3213 -37.010414 -150.21001 -0.088712104 150.18034
26109579579.58 -0.37444818 105.06976 -37.029373 -150.78442 -37.032047 -150.8842 -0.08506158 149.54767
26149609609.61 -0.37380883 104.3677 -37.026024 -151.70033 -37.073261 -151.84235 -0.080070481 148.94823
26189639639.64 -0.36730278 103.66391 -37.046116 -152.258 -37.051277 -152.22256 -0.080134816 148.35703
26229669669.67 -0.35797653 103.03249 -37.047886 -153.0919 -37.073544 -152.96231 -0.084542096 147.79056
26269699699.7 -0.35642934 102.42207 -37.049343 -153.68204 -37.049976 -153.62962 -0.089199319 147.17772
26309729729.73 -0.35802713 101.73582 -37.04517 -154.37955 -37.070705 -154.18289 -0.085127577 146.52884
26349759759.76 -0.35579684 100.98345 -37.089817 -154.81279 -37.023396 -154.90903 -0.084803678 145.98839
26389789789.79 -0.3493337 100.27866 -36.984852 -155.6499 -37.000259 -155.64999 -0.087352209 145.36917
26429819819.82 -0.33948103 99.615356 -37.034023 -156.19728 -37.032154 -156.34818 -0.08729542 144.7764
26469849849.85 -0.32959062 99.032364 -37.051872 -157.14328 -37.032063 -156.96608 -0.082900122 144.25851
26509879879.88 -0.33081844 98.462936 -36.971294 -156.94008 -37.041977 -157.76814 -0.089449815 143.71524
26549909909.91 -0.33514717 97.795586 -36.97567 -158.10497 -36.997799 -158.06139 -0.10230036 143.05991
26589939939.94 -0.32946271 97.058563 -37.030788 -159.53969 -36.980675 -159.19016 -0.095248617 142.41339
26629969969.97 -0.3204129 96.408638 -37.014603 -159.57713 -36.975956 -159.2578 -0.091423661 141.9389
26670000000 -0.30898952 95.818832 -36.920273 -160.89606 -37.114792 -160.29668 -0.10165771 141.44116
26710030030.03 -0.29543489 95.253128 -36.933418 -160.75269 -37.023026 -161.16321 -0.1123343 140.75618
26750060060.06 -0.2983222 94.779716 -37.049171 -161.76933 -37.023781 -161.2435 -0.11039342 140.15076
26790090090.09 -0.30955657 94.223991 -37.007629 -162.00491 -36.986935 -161.77603 -0.11326442 139.62918
26830120120.12 -0.30515221 93.504036 -36.954617 -162.99049 -37.095409 -162.49591 -0.12041949 139.01012
26870150150.15 -0.3014262 92.871017 -36.930664 -163.85133 -37.00415 -163.95848 -0.12720144 138.26964
26910180180.18 -0.30388886 92.194878 -37.090824 -164.10657 -37.008015 -163.95677 -0.10497825 137.67029
26950210210.21 -0.28868738 91.603767 -36.950912 -164.18156 -36.972988 -165.06104 -0.097300015 137.30528
26990240240.24 -0.27614415 91.079636 -36.941383 -164.65306 -37.013084 -166.11226 -0.11888787 136.88213
27030270270.27 -0.2855134 90.560432 -37.018875 -165.73251 -36.896 -166.30211 -0.12814648 136.23869
27070300300.3 -0.27936566 89.907196 -37.02142 -166.37614 -36.94096 -166.72502 -0.11537751 135.70288
27110330330.33 -0.27213424 89.414177 -36.905979 -166.65038 -37.022049 -167.62325 -0.12269024 135.21606
27150360360.36 -0.28583133 88.849968 -36.924938 -167.64108 -36.96249 -167.56844 -0.13383783 134.66547
27190390390.39 -0.28772888 88.147804 -36.934715 -169.05263 -36.926811 -168.42981 -0.1300081 133.9617
27230420420.42 -0.27024406 87.59137 -36.89687 -168.91266 -36.946484 -169.45178 -0.1310786 133.39598
27270450450.45 -0.27977395 87.092644 -36.92379 -169.64662 -36.979576 -170.11803 -0.13112555 132.78755
27310480480.48 -0.28339106 86.456505 -36.982834 -170.52763 -36.953876 -169.97887 -0.12267186 132.30292
27350510510.511 -0.27055922 85.814064 -36.950348 -171.19498 -37.07946 -171.06357 -0.11948438 131.87387
27390540540.541 -0.27148333 85.361298 -36.90778 -171.42725 -36.955971 -171.27628 -0.13484786 131.36504
27430570570.571 -0.28756294 84.726768 -36.89193 -172.57027 -36.914169 -172.45058 -0.1385739 130.74892
27470600600.601 -0.2837083 84.021774 -36.950821 -172.45193 -36.876019 -172.94688 -0.14267817 130.12701
27510630630.631 -0.27945593 83.490646 -36.907581 -173.43782 -36.923634 -173.13414 -0.14677668 129.55359
27550660660.661 -0.28778559 82.904282 -36.923992 -173.60823 -36.83041 -173.1521 -0.14104135 128.93503
27590690690.691 -0.29292554 82.186142 -36.835888 -175.56699 -36.905453 -175.41968 -0.14290288 128.39847
27630720720.721 -0.28133798 81.587158 -37.040943 -175.33153 -36.880768 -175.51134 -0.14315169 127.82217
27670750750.751 -0.29061025 81.02285 -36.938038 -176.64453 -36.780834 -176.10616 -0.14627172 127.26417
27710780780.781 -0.29481262 80.363304 -36.980679 -176.49503 -36.982868 -176.16707 -0.14204369 126.81448
27750810810.811 -0.29007667 79.750061 -36.930988 -176.92744 -36.900314 -177.64493 -0.14592689 126.25671
27790840840.841 -0.29188609 79.173813 -36.899433 -178.41164 -36.854649 -177.83533 -0.16130862 125.64912
27830870870.871 -0.29721716 78.497513 -36.969971 -178.10869 -36.880234 -178.76411 -0.15347686 125.01734
27870900900.901 -0.29522792 77.917969 -36.784443 -178.78596 -36.888283 -179.06729 -0.14394124 124.46509
27910930930.931 -0.29967159 77.316223 -36.851349 -178.97717 -36.845028 179.92113 -0.14429741 123.91862
27950960960.961 -0.31234232 76.652374 -36.844185 179.75548 -36.98233 178.81566 -0.14131144 123.34646
27990990990.991 -0.31208003 75.883659 -36.949364 178.82805 -36.846485 178.71652 -0.13762233 122.82224
28031021021.021 -0.29982358 75.249794 -36.910202 178.21379 -36.877213 178.00615 -0.12335598 122.3636
28071051051.051 -0.30192429 74.663925 -36.963085 176.61029 -36.924866 178.23409 -0.1391651 121.94449
28111081081.081 -0.31018847 74.081009 -36.852673 176.93913 -36.91312 176.0724 -0.14428082 121.29963
28151111111.111 -0.31634971 73.407188 -36.91235 176.35051 -36.864449 176.63113 -0.13942064 120.67647
28191141141.141 -0.32137391 72.708549 -36.923214 175.91664 -36.915085 175.28822 -0.1339892 120.20603
28231171171.171 -0.32986206 71.994865 -37.017071 174.45856 -36.960503 174.19722 -0.14543247 119.64567
28271201201.201 -0.32949036 71.27494 -36.908066 174.58336 -36.944069 174.62355 -0.13777569 118.96743
28311231231.231 -0.3377521 70.594818 -36.945454 174.61192 -36.959152 174.13486 -0.12074685 118.46017
28351261261.261 -0.33783549 69.904892 -36.893864 173.50549 -36.889896 173.4798 -0.12807797 118.09461
28391291291.291 -0.33006427 69.239822 -36.845181 172.11101 -36.858414 172.39511 -0.13547541 117.56046
28431321321.321 -0.33509403 68.588135 -36.962082 171.03967 -37.014595 172.13771 -0.12927786 117.00699
28471351351.351 -0.3568458 67.891998 -36.985958 170.0979 -36.941448 171.02974 -0.13044581 116.50553
28511381381.381 -0.36330384 67.054771 -37.045422 169.94664 -36.873238 170.15829 -0.13246453 115.95566
28551411411.411 -0.34940439 66.336617 -37.052654 168.79877 -36.975494 169.41269 -0.1260421 115.34447
28591441441.441 -0.34771302 65.653137 -37.000233 168.49335 -37.124069 168.62152 -0.11800949 114.84901
28631471471.471 -0.35696355 64.935112 -36.98317 168.73761 -36.98674 168.60701 -0.12474371 114.35698
28671501501.501 -0.35764989 64.242035 -36.946472 167.38901 -37.136475 167.65352 -0.12509698 113.80091
28711531531.532 -0.36136287 63.559769 -37.045418 166.40788 -37.019314 167.47188 -0.11965175 113.27764
28751561561.562 -0.38604245 62.834297 -37.031376 166.44865 -37.130951 166.43788 -0.11949635 112.72665
28791591591.592 -0.3902272 61.971783 -37.066441 166.12201 -37.015701 165.37416 -0.12818807 112.20618
28831621621.622 -0.37931523 61.153873 -37.120193 165.24112 -37.176071 165.09883 -0.12960295 111.61526
28871651651.652 -0.389788 60.454845 -37.125092 164.57225 -37.199158 163.35301 -0.12166812 111.04308
28911681681.682 -0.3933925 59.704002 -37.03231 163.32649 -37.25478 163.9278 -0.12106066 110.57841
28951711711.712 -0.38215032 59.043194 -37.196762 163.20612 -37.158173 163.59343 -0.13059333 110.00327
28991741741.742 -0.39990205 58.366077 -37.313004 162.05966 -37.275414 162.86702 -0.12269929 109.34115
29031771771.772 -0.42759922 57.495384 -37.164574 161.45825 -37.294167 161.40958 -0.1121906 108.84662
29071801801.802 -0.42825538 56.623428 -37.388191 161.43613 -37.357227 161.01224 -0.11588341 108.3323
29111831831.832 -0.42605701 55.861862 -37.367081 160.54158 -37.276329 160.00435 -0.11751397 107.75246
29151861861.862 -0.44151405 55.068844 -37.360462 159.73933 -37.472359 159.44754 -0.10766523 107.16546
29191891891.892 -0.45426431 54.211018 -37.334648 159.27644 -37.422398 158.2576 -0.10519201 106.73437
29231921921.922 -0.45325652 53.413837 -37.400078 158.27229 -37.509804 158.32199 -0.11549554 106.14529
29271951951.952 -0.46725336 52.605637 -37.564602 157.95695 -37.536205 157.29309 -0.10965613 105.55654
29311981981.982 -0.48322886 51.753311 -37.504448 157.40347 -37.503597 157.3071 -0.098607153 105.01283
29352012012.012 -0.48687184 50.90377 -37.617809 156.15305 -37.473862 156.25298 -0.10984834 104.47337
29392042042.042 -0.50359476 50.090618 -37.684113 156.41367 -37.498852 155.43736 -0.10475417 103.8242
29432072072.072 -0.53012919 49.126278 -37.765236 154.77628 -37.668003 155.4615 -0.095582023 103.29816
29472102102.102 -0.53479362 48.150833 -37.626274 154.26256 -37.732189 154.66866 -0.10399768 102.78252
29512132132.132 -0.54477429 47.246056 -37.775082 154.54506 -37.760288 153.96584 -0.10532222 102.13196
29552162162.162 -0.57010573 46.304977 -37.78463 152.93547 -37.699181 153.62271 -0.09158916 101.58543
29592192192.192 -0.58349973 45.278694 -37.867519 153.2393 -37.799133 152.10034 -0.086814493 101.11318
29632222222.222 -0.58799899 44.341976 -37.853432 151.13766 -37.935844 151.69089 -0.10953613 100.53179
29672252252.252 -0.60600549 43.383644 -38.039356 151.24788 -38.015442 150.81497 -0.10847835 99.773506
29712282282.282 -0.62288636 42.349014 -38.011238 150.75061 -38.113087 150.47781 -0.083730005 99.23053
29752312312.312 -0.62721425 41.320633 -38.122879 150.39415 -38.144264 150.23065 -0.090552129 98.846771
29792342342.342 -0.62706172 40.409424 -38.158104 149.7796 -38.160107 149.95059 -0.10479634 98.275894
29832372372.372 -0.64461327 39.523937 -38.415508 149.21609 -38.311104 149.5499 -0.096308202 97.584084
29872402402.402 -0.66719645 38.496113 -38.397549 148.28781 -38.386997 148.59711 -0.081273273 97.166443
29912432432.432 -0.68279362 37.509926 -38.501614 147.57523 -38.572247 148.15852 -0.10220734 96.643776
29952462462.462 -0.71433091 36.420498 -38.571884 147.18605 -38.516552 147.67734 -0.10791281 95.96315
29992492492.492 -0.73583162 35.140594 -38.666061 147.06906 -38.626518 146.11464 -0.095153093 95.383011
30032522522.523 -0.72781879 34.022373 -38.637642 146.53506 -38.684299 146.97641 -0.10421987 94.846619
30072552552.553 -0.72956693 33.150928 -38.918655 145.96359 -38.833084 146.69424 -0.11289804 94.152504
30112582582.583 -0.75332582 32.210964 -39.024784 146.41774 -38.893414 145.81979 -0.098022237 93.536812
30152612612.613 -0.77497762 31.2118 -39.007446 144.42093 -39.047482 145.35886 -0.086821362 93.123207
30192642642.643 -0.80386126 30.024429 -39.201157 144.69458 -39.09499 144.94006 -0.11223283 92.593361
30232672672.673 -0.84162897 28.766687 -39.303638 145.59698 -39.389847 144.45378 -0.1136606 91.840584
30272702702.703 -0.85099638 27.473204 -39.454834 143.59998 -39.334084 145.34097 -0.092117153 91.313171
30312732732.733 -0.85436136 26.334095 -39.693474 144.72021 -39.729599 144.58562 -0.10270694 90.910347
30352762762.763 -0.87572855 25.258572 -39.703671 145.04817 -39.65015 143.07532 -0.12102818 90.224731
30392792792.793 -0.89351356 24.130878 -40.011806 144.367 -39.877365 146.09727 -0.1092274 89.469696
30432822822.823 -0.92397791 23.119944 -39.959888 144.85829 -40.033997 143.89384 -0.085558414 89.048386
30472852852.853 -0.97596622 21.803223 -40.022041 144.15709 -40.013699 144.06023 -0.10711014 88.668777
30512882882.883 -1.0112839 20.342928 -40.28801 144.23407 -40.20528 144.80688 -0.12596162 88.0224
30552912912.913 -1.0249442 19.025396 -40.584755 145.20474 -40.338196 143.97592 -0.11628142 87.340012
30592942942.943 -1.055444 17.787331 -40.607471 145.04607 -40.664333 145.32465 -0.11820206 86.835854
30632972972.973 -1.0904133 16.545343 -40.645164 143.44247 -40.772049 146.38588 -0.1382273 86.217278
30673003003.003 -1.1307502 15.209196 -40.8936 146.16475 -40.846897 145.54138 -0.14611644 85.355797
30713033033.033 -1.1918106 13.812295 -40.965378 147.04366 -40.993229 147.03563 -0.12694237 84.73452
30753063063.063 -1.2418903 12.351476 -41.182453 146.03395 -41.247822 146.0882 -0.12501119 84.232666
30793093093.093 -1.2937351 10.923411 -41.288929 149.41827 -41.27095 148.28676 -0.13573608 83.639725
30833123123.123 -1.3715788 9.4012241 -41.197117 149.30467 -41.425728 148.74149 -0.12531386 83.043777
30873153153.153 -1.4492304 7.6638265 -41.601147 149.99124 -41.416195 150.5397 -0.12916292 82.555969
30913183183.183 -1.506956 5.9708586 -41.676357 151.57048 -41.408775 151.56442 -0.14941891 81.994576
30953213213.213 -1.5938896 4.3029833 -41.740387 154.26878 -41.946804 153.30032 -0.14884721 81.24202
30993243243.243 -1.6900027 2.5191751 -41.870529 156.73276 -41.806412 154.5527 -0.14820191 80.627808
31033273273.273 -1.7742789 0.74669248 -41.915909 155.36267 -41.927094 158.1431 -0.15847792 80.001511
31073303303.303 -1.9126904 -1.0024937 -41.841827 160.92044 -42.045979 158.75288 -0.16296868 79.220268
31113333333.333 -2.0748348 -3.1696558 -41.987156 160.49989 -41.684479 161.67059 -0.13896358 78.509598
31153363363.363 -2.2101893 -5.4651456 -41.816769 164.00375 -41.845879 164.68579 -0.13750876 78.106865
31193393393.393 -2.3759732 -7.6630769 -41.614704 166.41153 -41.674641 166.38559 -0.15201235 77.558334
31233423423.423 -2.583498 -10.023935 -41.157223 167.92805 -41.325413 168.59474 -0.15678521 76.807564
31273453453.453 -2.7795827 -12.580271 -41.228611 170.80051 -40.920105 169.74521 -0.14488752 76.255104
31313483483.483 -3.0187244 -14.953732 -40.889267 172.92526 -40.885895 173.43805 -0.1522354 75.732506
31353513513.514 -3.3576255 -17.636185 -40.279533 175.10968 -40.512753 176.37927 -0.15558037 75.003716
31393543543.544 -3.7241976 -20.901863 -39.930397 176.94992 -40.146885 176.85828 -0.13923514 74.331421
31433573573.574 -4.0931263 -24.347759 -39.619503 178.14903 -39.560211 177.36874 -0.12579587 73.832634
31473603603.604 -4.5399427 -27.795588 -39.11438 179.01665 -39.102192 178.79941 -0.13445215 73.2854
31513633633.634 -5.0790186 -31.457396 -38.559414 179.61671 -38.793846 178.80856 -0.11935879 72.661713
31553663663.664 -5.6951308 -35.30582 -37.885929 178.83926 -38.025051 179.52293 -0.099136263 72.327118
31593693693.694 -6.5254502 -39.46587 -37.386623 178.84073 -37.393131 179.80975 -0.11266504 71.979271
31633723723.724 -7.4905152 -44.851696 -36.869324 177.86966 -36.875408 178.31717 -0.13085583 71.330971
31673753753.754 -8.5455456 -50.629665 -36.336979 177.13443 -36.326111 176.88081 -0.11903287 70.802811
31713783783.784 -9.878953 -56.260521 -35.870625 175.80008 -35.863205 175.50627 -0.1292568 70.276169
31753813813.814 -11.695684 -63.134766 -35.24321 172.50325 -35.23962 172.82559 -0.16469473 69.634003
31793843843.844 -14.029826 -72.529015 -34.821667 170.97141 -34.838081 170.96648 -0.14458992 68.761002
31833873873.874 -17.271685 -86.05378 -34.44305 168.93324 -34.470184 168.43867 -0.098781668 68.327225
31873903903.904 -21.737577 -115.72349 -34.058773 165.78908 -34.13369 165.60503 -0.098540686 68.16185
31913933933.934 -22.768072 -172.87627 -33.782749 162.93085 -33.76012 163.04021 -0.12614229 67.709129
31953963963.964 -19.260433 147.74306 -33.568207 159.2751 -33.590992 159.60966 -0.11635906 67.13855
31993993993.994 -15.649019 126.38702 -33.364998 156.75789 -33.283352 156.60178 -0.10836954 66.874115
32034024024.024 -12.777366 115.07021 -33.267216 152.45621 -33.159122 153.50464 -0.13278 66.403214
32074054054.054 -10.745597 107.12535 -33.159054 150.59787 -33.161152 150.86464 -0.14473523 65.637093
32114084084.084 -9.1167564 100.42098 -32.979664 146.98601 -32.956039 146.94362 -0.11515342 65.108437
32154114114.114 -7.8045564 95.399841 -33.061962 144.35271 -32.887997 144.00325 -0.1094902 64.961342
32194144144.144 -6.8807068 90.876106 -33.067635 141.69376 -32.932705 141.112 -0.13894914 64.55706
32234174174.174 -6.1172404 85.763092 -33.114464 139.12704 -32.984035 138.58282 -0.13699126 63.937416
32274204204.204 -5.3390856 81.28833 -33.072216 136.10358 -33.126305 136.25743 -0.12596188 63.577801
32314234234.234 -4.7328515 77.822487 -33.099972 133.91705 -33.148655 133.97263 -0.1476534 63.192551
32354264264.264 -4.2522054 74.301369 -33.259003 131.3526 -33.243721 130.96667 -0.16207597 62.537201
32394294294.294 -3.7831845 70.998314 -33.31826 128.73895 -33.288139 129.4637 -0.13203114 61.999172
32434324324.324 -3.3883772 68.402084 -33.400188 126.95036 -33.329433 127.6088 -0.12109233 61.851845
32474354354.354 -3.1011341 65.858688 -33.50676 125.7312 -33.534054 125.3152 -0.14859942 61.428413
32514384384.384 -2.8162646 63.219643 -33.545574 123.5178 -33.573921 123.61391 -0.15356643 60.823799
32554414414.414 -2.5660985 60.943478 -33.765541 122.34203 -33.814407 122.62632 -0.15038568 60.418926
32594444444.444 -2.3935487 58.830326 -33.883137 120.14698 -33.903564 120.35439 -0.17280804 60.074356
32634474474.474 -2.2054543 56.428196 -33.906391 118.85453 -34.01339 118.84572 -0.17663015 59.421822
32674504504.505 -1.996514 54.438972 -34.231323 117.73495 -34.036797 117.61164 -0.15402021 58.877045
32714534534.535 -1.8515651 52.890789 -34.364666 115.65544 -34.201626 116.14649 -0.15011637 58.747707
32754564564.565 -1.7422858 51.180225 -34.360397 114.69694 -34.311634 114.78544 -0.18567131 58.263428
32794594594.595 -1.6046959 49.52742 -34.434155 113.01708 -34.430649 114.14304 -0.18489763 57.476631
32834624624.625 -1.4853408 48.284447 -34.502346 112.97241 -34.538174 112.79739 -0.15894885 57.037083
32874654654.655 -1.4336075 46.872196 -34.60741 111.31125 -34.602077 111.42134 -0.16657853 56.829384
32914684684.685 -1.3404711 45.185131 -34.852016 110.24403 -34.893101 111.08842 -0.19023791 56.190006
32954714714.715 -1.2217029 43.949818 -34.732948 110.22668 -34.880535 109.21317 -0.16462186 55.735874
32994744744.745 -1.1482009 42.974148 -35.05183 108.68446 -35.032974 108.37433 -0.15459956 55.601681
33034774774.775 -1.1052899 41.795753 -34.986977 107.07571 -35.197601 107.78767 -0.18493167 55.233177
33074804804.805 -1.0375968 40.667934 -35.152161 107.86512 -35.18314 106.7177 -0.19835523 54.546883
33114834834.835 -0.98675549 39.627594 -35.417961 105.55342 -35.478317 105.33022 -0.15113099 54.100906
33154864864.865 -0.95092899 38.474762 -35.417625 104.78592 -35.534519 105.44019 -0.16564903 53.973518
33194894894.895 -0.86023766 37.485435 -35.590244 104.08168 -35.569332 104.34056 -0.19364394 53.372784
33234924924.925 -0.79590708 36.845375 -35.688145 104.07679 -35.48679 102.73725 -0.17337508 52.654625
33274954954.955 -0.78468102 36.119907 -35.646992 103.46877 -35.600307 103.2732 -0.14185113 52.547039
33314984984.985 -0.74443227 35.197803 -35.914322 102.17678 -35.936253 102.41194 -0.17028613 52.381992
33355015015.015 -0.69441688 34.439148 -35.929012 101.46893 -35.944477 102.59404 -0.18284251 51.800804
33395045045.045 -0.66818029 33.825764 -35.880905 100.82539 -36.08794 101.68568 -0.16124253 51.271194
33435075075.075 -0.64951783 32.960468 -36.037674 100.16621 -35.962708 100.66085 -0.16228019 51.094891
33475105105.105 -0.60209948 32.138847 -35.994518 98.558022 -36.007298 100.09013 -0.1829254 50.60886
33515135135.135 -0.56187469 31.692038 -36.197464 99.61985 -36.136982 98.387894 -0.17183815 50.002827
33555165165.165 -0.54472971 31.136152 -36.140472 97.625221 -36.197273 98.554283 -0.13116771 49.729637
33595195195.195 -0.51752931 30.521301 -36.245033 97.32338 -36.191479 98.233253 -0.14556497 49.492168
33635225225.225 -0.49981716 29.959366 -36.292233 96.926476 -36.357536 97.347389 -0.15956378 49.009754
33675255255.255 -0.49404487 29.253202 -36.431049 97.134483 -36.421654 96.081429 -0.12765354 48.589989
33715285285.285 -0.45158395 28.572416 -36.417667 95.289063 -36.521076 96.306763 -0.12877893 48.417252
33755315315.315 -0.41675174 28.129143 -36.536453 95.58815 -36.716133 95.30986 -0.15122829 48.074215
33795345345.345 -0.40807828 27.788328 -36.527222 95.087158 -36.538803 94.929611 -0.13962728 47.511143
33835375375.375 -0.39952457 27.138073 -36.756222 94.002731 -36.742908 94.281616 -0.099390782 47.168938
33875405405.405 -0.36801809 26.532419 -36.555824 93.614464 -36.719528 93.856674 -0.072585359 47.143826
33915435435.435 -0.35218212 26.093115 -36.661678 92.374283 -36.859024 92.713745 -0.088047691 46.883736
33955465465.465 -0.3412672 25.524401 -36.719982 92.802032 -36.561432 93.459618 -0.080007195 46.650692
33995495495.495 -0.29205692 25.066126 -36.916565 92.570366 -36.894684 92.494186 -0.059072029 46.633659
34035525525.526 -0.27711442 24.888254 -37.009892 92.864456 -36.789444 91.223442 -0.088050857 46.435242
34075555555.556 -0.27820471 24.573896 -37.035244 90.96167 -37.027176 91.183266 -0.10692918 45.889568
34115585585.586 -0.2830852 24.093889 -36.949474 89.91169 -36.980659 91.453079 -0.085764617 45.355614
34155615615.616 -0.27456269 23.499441 -36.961353 91.340302 -37.012711 89.772758 -0.074959747 45.163025
34195645645.646 -0.26098517 22.907516 -37.036804 90.347404 -36.959126 89.493057 -0.065743282 44.854427
34235675675.676 -0.23437205 22.440329 -37.229553 89.681946 -36.90778 89.180649 -0.04748423 44.546684
34275705705.706 -0.20101087 22.220203 -37.136299 87.640099 -37.142105 89.023689 -0.029037891 44.538029
34315735735.736 -0.20136254 22.025084 -37.222641 87.35804 -37.012012 88.904816 -0.046664383 44.392704
34355765765.766 -0.21759425 21.663651 -37.238785 87.544945 -37.020527 87.862465 -0.058107276 44.059189
34395795795.796 -0.20612346 21.227049 -37.179291 86.30574 -37.174522 86.405235 -0.047568761 43.805145
34435825825.826 -0.20468315 20.835779 -37.267838 86.091072 -37.228268 87.97567 -0.059543334 43.523438
34475855855.856 -0.19642806 20.351448 -37.207451 85.874573 -37.223618 86.426834 -0.067595683 43.180813
34515885885.886 -0.17877835 20.022034 -37.210636 84.645714 -37.258003 86.504181 -0.051611453 42.800255
34555915915.916 -0.17092341 19.746611 -37.232162 85.277649 -37.29734 84.939751 -0.039745953 42.679607
34595945945.946 -0.17248453 19.500198 -37.207844 84.25106 -37.142933 85.665581 -0.064958081 42.504597
34635975975.976 -0.17684153 19.112501 -37.344738 82.949379 -37.343246 84.204239 -0.073564656 41.97884
34676006006.006 -0.17446306 18.724909 -37.409134 82.940056 -37.449135 83.73497 -0.04669892 41.6735
34716036036.036 -0.17937775 18.34831 -37.43491 82.048264 -37.395985 83.600502 -0.03714557 41.637981
34756066066.066 -0.16687576 17.964565 -37.520172 82.602386 -37.387707 83.352432 -0.070436679 41.427151
34796096096.096 -0.15782797 17.704416 -37.462444 82.190514 -37.308002 81.712959 -0.072065525 40.888027
34836126126.126 -0.17258339 17.456463 -37.390091 82.030052 -37.502316 81.357552 -0.056968316 40.537033
34876156156.156 -0.19409408 17.034901 -37.560795 81.005112 -37.357143 81.460701 -0.062375385 40.480644
34916186186.186 -0.19637661 16.509773 -37.4781 79.76268 -37.441795 79.694572 -0.095745295 40.079632
34956216216.216 -0.18091358 16.037109 -37.357937 78.747055 -37.422134 79.176254 -0.08374162 39.536942
34996246246.246 -0.17246433 15.764565 -37.436436 78.147774 -37.555336 77.588531 -0.063752174 39.348961
35036276276.276 -0.18444979 15.534854 -37.545254 77.463341 -37.454792 78.968094 -0.088828616 39.177078
35076306306.306 -0.20277759 15.130288 -37.4188 77.324837 -37.473316 76.881584 -0.11049273 38.625488
35116336336.336 -0.2138281 14.653043 -37.574863 76.569183 -37.57378 76.042931 -0.084163085 38.156178
35156366366.366 -0.20823307 14.257435 -37.590534 75.461235 -37.673687 75.73101 -0.077120416 38.034412
35196396396.396 -0.20928039 13.971803 -37.679176 75.542198 -37.570198 73.925423 -0.10764453 37.783024
35236426426.426 -0.23210089 13.593483 -37.649269 74.060631 -37.587521 74.272705 -0.11291955 37.313911
35276456456.456 -0.251546 13.115857 -37.743843 74.34697 -37.611763 73.251091 -0.10529198 36.997765
35316486486.486 -0.25009191 12.623632 -37.586315 73.037094 -37.612556 72.397079 -0.11885754 36.700268
35356516516.517 -0.25500873 12.319304 -37.669056 72.060844 -37.711525 71.797997 -0.14082475 36.243431
35396546546.547 -0.28238127 11.890092 -37.929714 71.829628 -37.731865 71.895279 -0.13741793 35.784569
35436576576.577 -0.30030039 11.347296 -37.707417 71.025871 -37.546856 71.546555 -0.1388711 35.488876
35476606606.607 -0.3003886 10.82777 -37.730457 69.666901 -37.759861 70.251213 -0.14980768 35.094288
35516636636.637 -0.31015012 10.402599 -37.698002 69.638031 -37.764614 69.918808 -0.15236945 34.645649
35556666666.667 -0.32789996 9.9553823 -37.71447 68.056801 -37.7761 67.955902 -0.14499378 34.299381
35596696696.697 -0.33740154 9.4749098 -37.869923 68.914871 -37.91687 67.771355 -0.15726025 34.042717
35636726726.727 -0.36172268 8.8671579 -38.153954 67.586945 -37.938972 67.190895 -0.17074086 33.644196
35676756756.757 -0.35606322 8.2745085 -37.862568 66.909973 -38.059349 67.272354 -0.17788993 33.202229
35716786786.787 -0.34936148 7.9153175 -37.982483 66.602272 -37.94091 66.033249 -0.17862003 32.796139
35756816816.817 -0.37311119 7.5761724 -38.058704 64.39492 -38.075924 64.119408 -0.17782305 32.407097
35796846846.847 -0.39689621 7.0020938 -38.109657 63.667049 -38.03067 65.190048 -0.17956282 32.060658
35836876876.877 -0.40159142 6.4229574 -38.170368 63.832947 -38.093899 63.310452 -0.18935524 31.690542
35876906906.907 -0.41090578 5.9658771 -38.102478 61.989868 -38.166031 63.285664 -0.18949315 31.29896
35916936936.937 -0.43227714 5.3394647 -38.285236 62.290138 -38.214771 61.221321 -0.18300882 30.900766
35956966966.967 -0.41780043 4.7425642 -38.101456 61.441746 -38.223923 61.884724 -0.18711208 30.63265
35996996996.997 -0.41853321 4.2976756 -38.229519 60.501148 -38.36235 60.059254 -0.2065624 30.240911
36037027027.027 -0.43401006 3.8084414 -38.460144 59.230595 -38.619453 59.698784 -0.20447801 29.687828
36077057057.057 -0.44365087 3.2579861 -38.531193 58.754852 -38.381065 58.339577 -0.17577882 29.2733
36117087087.087 -0.45118073 2.7190206 -38.524548 58.210281 -38.68544 58.094845 -0.16992594 29.074886
36157117117.117 -0.46322328 2.0815814 -38.472477 57.462746 -38.573338 57.271919 -0.1840236 28.793299
36197147147.147 -0.45380276 1.4216269 -38.574299 56.030891 -38.631062 56.976974 -0.18651323 28.322668
36237177177.177 -0.42802885 1.0304698 -38.714638 56.01482 -38.419678 55.219543 -0.17510122 27.921562
36277207207.207 -0.44996375 0.67246556 -38.702927 53.866688 -38.551918 53.902885 -0.16118558 27.650675
36317237237.237 -0.47633854 0.01790818 -38.707783 53.988098 -38.689087 52.372013 -0.16810124 27.293188
36357267267.267 -0.45998684 -0.5797509 -38.844639 52.663071 -38.82822 52.503189 -0.16367772 26.876844
36397297297.297 -0.45210215 -0.94713455 -38.876842 52.553432 -38.962578 51.955627 -0.14123175 26.507814
36437327327.327 -0.46621802 -1.4178972 -39.141266 51.229336 -38.974968 51.099762 -0.12239335 26.347164
36477357357.357 -0.47353828 -1.952587 -39.013187 50.246754 -38.971905 51.904758 -0.13123627 26.115856
36517387387.387 -0.47853649 -2.3939326 -38.895958 51.048935 -39.193691 51.595299 -0.13657238 25.739754
36557417417.417 -0.49748445 -2.9440033 -39.226891 48.695709 -39.084579 48.457066 -0.12429831 25.358627
36597447447.447 -0.50027901 -3.4534657 -39.351963 48.423847 -39.087379 49.223904 -0.11574623 25.106148
36637477477.477 -0.51332235 -3.9024017 -39.471081 47.632664 -39.188423 48.320004 -0.11408551 24.735273
36677507507.508 -0.533162 -4.4685278 -39.45118 47.322025 -39.287251 46.350658 -0.087294631 24.387869
36717537537.538 -0.5413686 -5.1151938 -39.661629 47.422203 -39.614426 46.224648 -0.057106014 24.299576
36757567567.568 -0.53393555 -5.5481453 -39.660385 46.167717 -39.598686 45.443878 -0.059649881 24.257061
36797597597.598 -0.5578301 -5.9528198 -39.49474 43.224648 -39.634254 44.450829 -0.067333557 24.0382
36837627627.628 -0.58095533 -6.5685368 -39.658913 43.086494 -39.724712 44.086182 -0.059544645 23.833868
36877657657.658 -0.58889592 -7.1746144 -39.786179 43.796146 -40.007805 41.914066 -0.06952884 23.70929
36917687687.688 -0.58838427 -7.5789156 -39.766624 44.666206 -39.664734 41.856396 -0.085061312 23.454573
36957717717.718 -0.60328311 -7.9147754 -39.964241 43.223473 -40.244602 42.335377 -0.072003938 23.122187
36997747747.748 -0.63288552 -8.3656683 -40.191334 40.295879 -39.915112 39.572281 -0.058591068 22.997366
37037777777.778 -0.66398001 -8.8982544 -40.257511 40.175144 -40.05484 40.335026 -0.061142109 22.913912
37077807807.808 -0.68222141 -9.3977728 -40.393555 40.359585 -40.082161 40.055172 -0.062866487 22.779556
37117837837.838 -0.70907772 -9.9382763 -40.078339 38.93066 -40.514893 38.793491 -0.052474938 22.713388
37157867867.868 -0.72758311 -10.502719 -40.345428 37.44751 -40.056301 38.726311 -0.056223772 22.807726
37197897897.898 -0.74645817 -10.917663 -40.42408 37.801701 -40.743484 38.274433 -0.07622014 22.848368
37237927927.928 -0.77044654 -11.270142 -40.642963 38.458557 -40.488724 36.397343 -0.1109184 22.736212
37277957957.958 -0.81283194 -11.675139 -40.331814 39.058521 -40.425713 35.011456 -0.12890932 22.653444
37317987987.988 -0.8624146 -12.238624 -40.833515 37.326706 -40.711052 35.013306 -0.16570657 22.470373
37358018018.018 -0.90394223 -12.88949 -40.494259 33.13744 -40.794453 33.958355 -0.19683 22.294609
37398048048.048 -0.93017393 -13.46883 -40.97464 33.565418 -40.812489 33.805355 -0.20691559 21.985502
37438078078.078 -0.95040053 -13.924948 -40.87812 30.7283 -40.725449 33.358685 -0.19992787 21.975088
37478108108.108 -0.98917305 -14.321349 -41.004139 31.522778 -41.084156 32.65889 -0.21925473 22.12845
37518138138.138 -1.0414021 -14.769012 -40.8815 31.064589 -41.303959 30.290749 -0.2710298 22.244299
37558168168.168 -1.0905002 -15.320068 -41.493031 32.224823 -41.359783 29.704571 -0.31676707 22.143417
37598198198.198 -1.1497087 -15.856942 -40.980873 29.35018 -41.119728 30.404461 -0.35767013 22.043795
37638228228.228 -1.1987655 -16.438082 -41.509472 28.250669 -41.470623 30.639338 -0.41139379 21.960356
37678258258.258 -1.2407659 -17.096062 -41.647419 26.114765 -41.124939 26.355165 -0.47384951 21.727829
37718288288.288 -1.2974594 -17.616144 -41.657303 26.014448 -41.491852 27.484583 -0.52396077 21.453749
37758318318.318 -1.3492082 -18.172005 -41.247822 24.227829 -41.462742 24.559948 -0.56604546 21.374012
37798348348.348 -1.4214714 -18.783108 -42.186329 25.052284 -41.501492 24.273146 -0.62491256 21.308182
37838378378.378 -1.4872464 -19.587015 -42.083733 25.499582 -41.629662 24.320297 -0.70011276 21.128622
37878408408.408 -1.531118 -20.42926 -41.670238 22.991987 -41.778278 22.568636 -0.7630713 20.826496
37918438438.438 -1.5488858 -21.066347 -42.275326 22.043505 -41.999474 23.827034 -0.83274919 20.534616
37958468468.468 -1.6148422 -21.579411 -41.515747 21.932314 -41.884579 20.75412 -0.88499343 20.284466
37998498498.498 -1.6918122 -22.325272 -41.921867 21.142885 -41.99297 19.012007 -0.96255809 20.082964
38038528528.529 -1.7552158 -23.228447 -42.153976 17.672274 -42.03289 19.212492 -1.0560151 19.788334
38078558558.559 -1.8012542 -24.111864 -42.014519 15.485152 -42.551361 18.749697 -1.1448635 19.142071
38118588588.589 -1.8486798 -25.054583 -42.698715 15.341375 -41.977058 16.902895 -1.2142737 18.736355
38158618618.619 -1.8909911 -26.123693 -42.728256 13.777192 -42.556789 16.985914 -1.2825142 18.353395
38198648648.649 -1.923243 -26.919037 -42.569202 15.13662 -42.075104 14.562507 -1.3717829 17.889614
38238678678.679 -1.9768546 -27.874983 -42.341652 16.209238 -42.177483 13.868001 -1.4610831 17.387714
38278708708.709 -2.0096641 -29.063059 -42.465397 12.480954 -42.551926 13.161915 -1.5413827 16.968916
38318738738.739 -2.0256143 -30.114195 -42.357933 11.722767 -42.261936 11.15359 -1.6549295 16.449892
38358768768.769 -2.0564687 -31.190346 -42.695904 5.8734155 -42.220966 9.7203331 -1.7718227 15.323724
38398798798.799 -2.0569746 -32.395599 -42.845181 4.4839563 -43.209042 7.4736638 -1.841013 14.314889
38438828828.829 -2.0458331 -33.291916 -42.518509 6.9347277 -43.091282 7.3223438 -1.8934896 13.509631
38478858858.859 -2.0593686 -34.343315 -42.958179 2.448524 -43.101707 8.1435623 -1.9919108 12.792862
38518888888.889 -2.0681257 -35.60746 -42.818577 3.9156451 -43.117172 3.6520736 -2.0480802 11.832926
38558918918.919 -2.018316 -36.81311 -43.241421 -0.61181462 -42.611786 7.9534802 -2.1024556 11.075569
38598948948.949 -1.9732715 -37.746029 -43.114155 1.1459368 -42.872589 3.3661902 -2.1853738 10.541175
38638978978.979 -1.9332271 -38.721752 -43.592834 0.11224335 -42.802498 -1.3971578 -2.2759306 9.2903461
38679009009.009 -1.8895499 -39.594883 -43.312286 0.46185383 -42.940628 -4.5291419 -2.3283124 8.1507225
38719039039.039 -1.872161 -40.475681 -43.332745 -3.8776474 -43.291431 -2.0893016 -2.3773766 7.0046
38759069069.069 -1.8176026 -41.857182 -43.462326 -7.7434435 -43.831692 -5.747057 -2.4356391 5.775403
38799099099.099 -1.7350546 -42.964348 -43.259575 -6.0158281 -43.607639 -5.6580701 -2.4641824 4.1724138
38839129129.129 -1.6471136 -43.927021 -43.819756 -8.3145151 -43.497021 -10.219845 -2.418807 2.9243178
38879159159.159 -1.5741442 -45.001179 -43.071285 -6.0085592 -43.021725 -9.6195745 -2.4199932 2.2437172
38919189189.189 -1.4428824 -45.92104 -43.695679 -11.502823 -43.493992 -10.808439 -2.4680185 1.2502724
38959219219.219 -1.3474904 -46.634514 -44.258583 -10.675013 -42.944286 -11.683957 -2.478308 -0.32291979
38999249249.249 -1.2555388 -47.321053 -43.205315 -16.493559 -43.661945 -12.648491 -2.4342937 -1.821962
39039279279.279 -1.1446779 -48.056648 -43.961197 -17.588818 -43.504147 -15.355599 -2.3736815 -3.0179801
39079309309.309 -1.0148337 -48.749016 -43.745564 -15.764516 -43.428757 -17.763847 -2.3445063 -4.2561746
39119339339.339 -0.92038125 -49.382103 -43.290714 -21.239182 -43.621113 -19.176163 -2.2706711 -5.4907856
39159369369.369 -0.79696685 -50.093651 -43.56572 -22.566475 -44.036381 -20.993958 -2.2116907 -6.8652864
39199399399.399 -0.65505183 -50.693726 -43.580685 -19.275669 -43.870659 -22.649448 -2.118432 -7.9458852
39239429429.429 -0.53585541 -50.978226 -43.769638 -23.623049 -43.617393 -22.090567 -2.0345826 -9.1173191
39279459459.459 -0.40343884 -51.210945 -43.562145 -26.308365 -43.438183 -28.771854 -1.9400375 -10.259858
39319489489.489 -0.28407887 -51.447166 -44.639931 -28.756306 -43.485264 -27.715828 -1.8094596 -11.287795
39359519519.52 -0.18969217 -51.753262 -43.792732 -25.518848 -44.065731 -33.570187 -1.7158139 -12.210374
39399549549.55 -0.063855149 -52.05217 -43.805256 -32.449692 -44.146542 -30.782955 -1.579402 -13.242142
39439579579.58 0.084087685 -52.350418 -43.76757 -30.9765 -43.489498 -30.864529 -1.4360301 -13.966728
39479609609.61 0.22336902 -52.439182 -44.202995 -34.532608 -43.136887 -32.603344 -1.2910835 -14.637799
39519639639.64 0.35856125 -52.468945 -43.789192 -34.633987 -43.752789 -35.525879 -1.1821364 -15.299722
39559669669.67 0.48213458 -52.484715 -43.931 -37.113525 -43.724579 -39.510227 -1.0422161 -16.22522
39599699699.7 0.60588014 -52.362495 -43.577755 -43.228092 -43.898205 -41.557163 -0.88324255 -17.452387
39639729729.73 0.71938229 -52.202446 -43.637165 -45.231438 -43.36161 -41.616119 -0.65789032 -18.202837
39679759759.76 0.82609153 -52.054626 -43.405666 -48.020634 -43.558807 -47.39716 -0.44427392 -18.466063
39719789789.79 0.93167639 -52.0411 -43.194084 -45.394203 -43.643291 -43.770851 -0.31987369 -18.29793
39759819819.82 1.0816661 -51.951405 -44.025963 -48.386585 -43.931522 -46.696281 -0.20764841 -18.620075
39799849849.85 1.208396 -51.454464 -43.243927 -50.143074 -43.238968 -47.384975 -0.043005615 -19.013184
39839879879.88 1.3049593 -51.043278 -43.681843 -49.459911 -42.893372 -51.568428 0.10606203 -19.284727
39879909909.91 1.4117786 -50.532726 -43.442383 -54.056763 -43.26009 -52.874111 0.2387213 -19.53001
39919939939.94 1.5018975 -49.973675 -43.752132 -55.063686 -43.471313 -52.144062 0.40898651 -20.179991
39959969969.97 1.566547 -49.525307 -43.012466 -54.514603 -43.913101 -54.09531 0.63032937 -20.621819
40000000000 1.6517957 -49.334789 -43.544453 -54.032475 -43.321648 -58.308247 0.8283698 -20.403299
