! Device: ADRF5703
! Frequency: 9kHz – 20 GHz
! Ports:
! ATTIN  = Port 1
! ATTOUT = Port 2
! Attenuation bit: 30
! Attenuation state: 7.5dB
! VDD = VDD3
! Temperature = 3V_V
! Data: Data was collected using a calibrated network analyzer.
! The reference plane is the package pins of ADRF5703.
! Note: Analog Devices supplies this data as a sample of measured data for this product.
! Your particular data for this product may vary.
! Analog Devices reserves the right to change this data at anytime
# GHZ S DB R 50
5.000000e-02 -32.780 -15.569  -7.924  -1.035  -7.871  -1.073 -29.936  -4.443
1.000000e-01 -32.498   0.933  -7.925  -1.800  -7.869  -1.816 -29.517  -2.225
1.500000e-01 -32.380  -2.713  -7.927  -2.475  -7.870  -2.494 -29.478  -2.760
2.000000e-01 -32.217   3.158  -7.929  -3.276  -7.870  -3.313 -29.260   3.228
2.500000e-01 -32.109   0.699  -7.932  -4.069  -7.872  -4.104 -29.119  -1.624
3.000000e-01 -31.995   3.454  -7.933  -4.853  -7.874  -4.907 -29.200  -0.338
3.500000e-01 -31.895   3.329  -7.935  -5.650  -7.877  -5.700 -29.087   3.327
4.000000e-01 -31.789   5.339  -7.937  -6.432  -7.880  -6.497 -28.940   0.878
4.500000e-01 -31.716   4.124  -7.939  -7.223  -7.883  -7.282 -28.999  -0.925
5.000000e-01 -31.616   6.186  -7.942  -7.975  -7.886  -8.045 -28.940   2.822
5.500000e-01 -31.551   5.094  -7.946  -8.800  -7.890  -8.843 -28.771   0.625
6.000000e-01 -31.474   6.461  -7.950  -9.579  -7.893  -9.636 -28.827  -0.894
6.500000e-01 -31.367   6.257  -7.954 -10.363  -7.897 -10.410 -28.762   2.672
7.000000e-01 -31.266   6.701  -7.957 -11.141  -7.900 -11.198 -28.614   1.177
7.500000e-01 -31.226   6.536  -7.960 -11.896  -7.903 -11.961 -28.669  -0.691
8.000000e-01 -31.144   8.238  -7.963 -12.692  -7.907 -12.733 -28.681   2.354
8.500000e-01 -31.059   7.684  -7.966 -13.480  -7.912 -13.536 -28.518   1.885
9.000000e-01 -31.019   7.611  -7.968 -14.226  -7.916 -14.331 -28.581  -2.214
9.500000e-01 -30.969   8.502  -7.974 -15.012  -7.921 -15.100 -28.600   1.693
     1 -30.899   8.151  -7.979 -15.799  -7.927 -15.854 -28.447   1.348
1.050000e+00 -30.835   8.441  -7.984 -16.554  -7.932 -16.612 -28.433  -1.745
1.100000e+00 -30.776   8.093  -7.990 -17.311  -7.936 -17.388 -28.484  -0.067
1.150000e+00 -30.675   8.069  -7.996 -18.070  -7.941 -18.147 -28.312   1.305
1.200000e+00 -30.587   7.845  -8.001 -18.846  -7.946 -18.925 -28.282  -2.680
1.250000e+00 -30.466   8.229  -8.005 -19.628  -7.951 -19.717 -28.301  -0.550
1.300000e+00 -30.396   8.525  -8.009 -20.388  -7.957 -20.482 -28.179   0.576
1.350000e+00 -30.299   8.160  -8.014 -21.150  -7.962 -21.259 -28.092  -2.240
1.400000e+00 -30.208   8.707  -8.017 -21.902  -7.966 -22.032 -28.123  -1.826
1.450000e+00 -30.104   7.340  -8.020 -22.645  -7.968 -22.784 -27.989  -0.548
1.500000e+00 -30.063   7.792  -8.022 -23.420  -7.970 -23.511 -27.920  -3.224
1.550000e+00 -29.936   8.168  -8.024 -24.208  -7.972 -24.304 -27.944  -2.485
1.600000e+00 -29.868   7.538  -8.026 -24.978  -7.974 -25.091 -27.867  -1.196
1.650000e+00 -29.828   7.465  -8.029 -25.728  -7.977 -25.851 -27.783  -3.212
1.700000e+00 -29.793   8.287  -8.032 -26.501  -7.981 -26.611 -27.842  -4.309
1.750000e+00 -29.707   7.410  -8.035 -27.271  -7.986 -27.384 -27.781  -1.618
1.800000e+00 -29.706   6.698  -8.037 -28.014  -7.989 -28.130 -27.691  -4.434
1.850000e+00 -29.628   7.151  -8.040 -28.775  -7.991 -28.878 -27.729  -5.583
1.900000e+00 -29.593   6.006  -8.042 -29.550  -7.994 -29.635 -27.721  -4.169
1.950000e+00 -29.521   5.900  -8.044 -30.325  -7.996 -30.418 -27.623  -4.772
     2 -29.489   6.456  -8.046 -31.076  -7.998 -31.192 -27.660  -6.626
2.050000e+00 -29.409   4.972  -8.049 -31.835  -8.001 -31.962 -27.649  -5.150
2.100000e+00 -29.388   5.475  -8.051 -32.594  -8.004 -32.728 -27.539  -5.843
2.150000e+00 -29.294   4.229  -8.053 -33.357  -8.006 -33.486 -27.547  -8.477
2.200000e+00 -29.251   4.274  -8.054 -34.124  -8.007 -34.255 -27.542  -6.793
2.250000e+00 -29.181   3.791  -8.056 -34.886  -8.009 -35.003 -27.440  -6.934
2.300000e+00 -29.144   3.441  -8.059 -35.680  -8.010 -35.774 -27.439  -9.481
2.350000e+00 -29.088   3.462  -8.062 -36.463  -8.013 -36.546 -27.483  -7.747
2.400000e+00 -29.054   2.988  -8.066 -37.235  -8.016 -37.302 -27.372  -7.704
2.450000e+00 -29.002   2.618  -8.070 -38.002  -8.020 -38.061 -27.358 -10.446
2.500000e+00 -28.963   2.173  -8.075 -38.768  -8.023 -38.828 -27.375  -9.533
2.550000e+00 -28.901   1.913  -8.079 -39.527  -8.027 -39.585 -27.291  -9.056
2.600000e+00 -28.883   1.834  -8.084 -40.281  -8.030 -40.341 -27.256 -11.074
2.650000e+00 -28.839   1.560  -8.088 -41.049  -8.034 -41.089 -27.303 -11.167
2.700000e+00 -28.815   1.047  -8.092 -41.804  -8.036 -41.868 -27.217 -10.138
2.750000e+00 -28.802  -0.155  -8.095 -42.542  -8.039 -42.619 -27.193 -13.199
2.800000e+00 -28.794   0.467  -8.098 -43.302  -8.041 -43.383 -27.222 -12.531
2.850000e+00 -28.734  -0.395  -8.101 -44.066  -8.044 -44.136 -27.157 -11.802
2.900000e+00 -28.733  -1.546  -8.103 -44.823  -8.045 -44.904 -27.107 -14.067
2.950000e+00 -28.725  -0.879  -8.105 -45.565  -8.048 -45.663 -27.198 -14.302
     3 -28.703  -1.196  -8.108 -46.317  -8.050 -46.450 -27.135 -12.487
3.050000e+00 -28.672  -1.674  -8.110 -47.069  -8.053 -47.208 -27.097 -15.317
3.100000e+00 -28.668  -2.596  -8.111 -47.828  -8.055 -47.974 -27.143 -15.895
3.150000e+00 -28.659  -2.762  -8.114 -48.582  -8.058 -48.726 -27.137 -14.497
3.200000e+00 -28.625  -2.527  -8.116 -49.337  -8.060 -49.501 -27.049 -15.576
3.250000e+00 -28.594  -3.539  -8.119 -50.096  -8.063 -50.265 -27.121 -17.051
3.300000e+00 -28.599  -4.094  -8.121 -50.839  -8.066 -51.051 -27.113 -16.074
3.350000e+00 -28.578  -3.746  -8.124 -51.584  -8.069 -51.817 -27.058 -17.442
3.400000e+00 -28.558  -4.580  -8.128 -52.356  -8.072 -52.583 -27.072 -19.050
3.450000e+00 -28.546  -5.083  -8.130 -53.111  -8.075 -53.335 -27.086 -18.346
3.500000e+00 -28.541  -5.508  -8.132 -53.865  -8.077 -54.100 -26.984 -18.584
3.550000e+00 -28.516  -6.015  -8.135 -54.625  -8.080 -54.858 -27.023 -21.472
3.600000e+00 -28.525  -6.647  -8.138 -55.391  -8.083 -55.629 -27.027 -19.608
3.650000e+00 -28.538  -7.199  -8.139 -56.144  -8.086 -56.384 -26.973 -20.698
3.700000e+00 -28.522  -7.085  -8.142 -56.906  -8.090 -57.152 -26.963 -22.941
3.750000e+00 -28.533  -8.848  -8.144 -57.668  -8.093 -57.920 -27.026 -22.183
3.800000e+00 -28.529  -9.022  -8.147 -58.423  -8.096 -58.672 -26.954 -22.037
3.850000e+00 -28.539  -8.607  -8.149 -59.180  -8.099 -59.431 -26.993 -23.583
3.900000e+00 -28.518  -9.250  -8.152 -59.944  -8.103 -60.195 -27.056 -23.439
3.950000e+00 -28.553  -9.003  -8.155 -60.689  -8.106 -60.953 -27.041 -22.602
     4 -28.561  -9.677  -8.158 -61.465  -8.110 -61.710 -27.073 -25.337
4.050000e+00 -28.593  -9.319  -8.161 -62.220  -8.114 -62.480 -27.157 -24.380
4.100000e+00 -28.584  -9.988  -8.163 -62.973  -8.116 -63.209 -27.131 -23.897
4.150000e+00 -28.597 -10.417  -8.166 -63.730  -8.119 -63.977 -27.141 -26.380
4.200000e+00 -28.593 -10.769  -8.169 -64.496  -8.121 -64.730 -27.256 -26.389
4.250000e+00 -28.615 -10.272  -8.172 -65.247  -8.123 -65.488 -27.216 -24.854
4.300000e+00 -28.615 -10.723  -8.174 -65.999  -8.125 -66.228 -27.196 -27.902
4.350000e+00 -28.645 -10.457  -8.178 -66.769  -8.127 -66.998 -27.266 -28.610
4.400000e+00 -28.648 -11.765  -8.181 -67.515  -8.129 -67.722 -27.250 -26.929
4.450000e+00 -28.685 -11.487  -8.183 -68.263  -8.130 -68.488 -27.161 -28.564
4.500000e+00 -28.634 -12.247  -8.185 -69.027  -8.131 -69.246 -27.247 -30.070
4.550000e+00 -28.650 -12.914  -8.189 -69.790  -8.133 -70.018 -27.228 -28.372
4.600000e+00 -28.643 -13.163  -8.192 -70.550  -8.136 -70.769 -27.198 -29.556
4.650000e+00 -28.632 -12.467  -8.195 -71.309  -8.137 -71.550 -27.232 -30.953
4.700000e+00 -28.604 -13.967  -8.199 -72.054  -8.140 -72.286 -27.271 -29.073
4.750000e+00 -28.622 -13.449  -8.202 -72.804  -8.142 -73.037 -27.209 -30.525
4.800000e+00 -28.584 -13.477  -8.205 -73.571  -8.145 -73.801 -27.323 -31.303
4.850000e+00 -28.576 -13.705  -8.208 -74.318  -8.148 -74.564 -27.351 -29.911
4.900000e+00 -28.570 -13.721  -8.210 -75.063  -8.151 -75.312 -27.348 -30.369
4.950000e+00 -28.574 -13.803  -8.213 -75.836  -8.154 -76.063 -27.410 -32.934
     5 -28.572 -14.329  -8.215 -76.594  -8.156 -76.785 -27.495 -31.000
5.050000e+00 -28.586 -14.076  -8.217 -77.345  -8.159 -77.528 -27.431 -31.554
5.100000e+00 -28.581 -14.450  -8.218 -78.111  -8.160 -78.306 -27.509 -33.479
5.150000e+00 -28.600 -14.193  -8.220 -78.872  -8.163 -79.072 -27.570 -32.581
5.200000e+00 -28.606 -13.792  -8.222 -79.619  -8.165 -79.809 -27.529 -31.892
5.250000e+00 -28.635 -14.051  -8.224 -80.379  -8.168 -80.565 -27.561 -34.847
5.300000e+00 -28.639 -13.910  -8.227 -81.137  -8.169 -81.317 -27.619 -33.446
5.350000e+00 -28.658 -14.798  -8.229 -81.863  -8.171 -82.083 -27.521 -32.813
5.400000e+00 -28.624 -14.826  -8.231 -82.634  -8.172 -82.860 -27.518 -36.293
5.450000e+00 -28.639 -15.667  -8.233 -83.380  -8.175 -83.620 -27.580 -34.347
5.500000e+00 -28.600 -15.225  -8.236 -84.134  -8.176 -84.375 -27.495 -33.433
5.550000e+00 -28.592 -14.840  -8.238 -84.894  -8.178 -85.137 -27.444 -35.489
5.600000e+00 -28.539 -16.106  -8.241 -85.654  -8.180 -85.893 -27.522 -36.163
5.650000e+00 -28.535 -15.285  -8.244 -86.401  -8.183 -86.636 -27.460 -34.099
5.700000e+00 -28.486 -16.237  -8.247 -87.164  -8.184 -87.409 -27.418 -35.750
5.750000e+00 -28.453 -15.474  -8.249 -87.925  -8.187 -88.183 -27.488 -36.310
5.800000e+00 -28.401 -16.713  -8.251 -88.671  -8.190 -88.943 -27.471 -34.299
5.850000e+00 -28.383 -17.104  -8.253 -89.415  -8.192 -89.701 -27.442 -36.452
5.900000e+00 -28.348 -16.556  -8.256 -90.191  -8.194 -90.460 -27.520 -37.142
5.950000e+00 -28.308 -17.093  -8.258 -90.938  -8.197 -91.196 -27.504 -34.845
     6 -28.261 -16.635  -8.259 -91.692  -8.199 -91.955 -27.451 -37.749
6.050000e+00 -28.241 -17.581  -8.261 -92.450  -8.200 -92.711 -27.525 -37.492
6.100000e+00 -28.205 -16.995  -8.264 -93.213  -8.203 -93.470 -27.519 -36.518
6.150000e+00 -28.191 -17.110  -8.265 -93.968  -8.205 -94.216 -27.437 -36.834
6.200000e+00 -28.161 -17.682  -8.267 -94.726  -8.208 -94.987 -27.494 -39.312
6.250000e+00 -28.149 -17.488  -8.270 -95.478  -8.211 -95.743 -27.468 -37.076
6.300000e+00 -28.121 -18.548  -8.272 -96.226  -8.214 -96.485 -27.371 -38.109
6.350000e+00 -28.082 -18.158  -8.273 -96.997  -8.216 -97.245 -27.379 -40.120
6.400000e+00 -28.055 -18.706  -8.276 -97.743  -8.219 -97.988 -27.381 -37.853
6.450000e+00 -28.004 -18.704  -8.278 -98.494  -8.221 -98.747 -27.288 -38.316
6.500000e+00 -27.964 -18.712  -8.280 -99.257  -8.222 -99.513 -27.318 -40.336
6.550000e+00 -27.942 -20.307  -8.283 -100.007  -8.224 -100.269 -27.362 -38.659
6.600000e+00 -27.908 -18.858  -8.284 -100.748  -8.226 -101.005 -27.285 -39.252
6.650000e+00 -27.851 -20.469  -8.286 -101.504  -8.227 -101.766 -27.299 -40.816
6.700000e+00 -27.820 -20.734  -8.288 -102.267  -8.229 -102.533 -27.356 -40.803
6.750000e+00 -27.784 -20.759  -8.289 -103.007  -8.231 -103.287 -27.297 -39.227
6.800000e+00 -27.733 -21.206  -8.289 -103.748  -8.232 -104.050 -27.297 -41.963
6.850000e+00 -27.713 -21.113  -8.291 -104.509  -8.234 -104.821 -27.339 -41.464
6.900000e+00 -27.669 -21.388  -8.293 -105.258  -8.236 -105.563 -27.299 -40.997
6.950000e+00 -27.661 -22.053  -8.294 -106.032  -8.238 -106.341 -27.256 -43.093
     7 -27.641 -21.897  -8.296 -106.786  -8.241 -107.092 -27.269 -42.704
7.050000e+00 -27.612 -22.279  -8.297 -107.540  -8.243 -107.849 -27.199 -42.790
7.100000e+00 -27.595 -22.665  -8.299 -108.300  -8.245 -108.601 -27.159 -43.709
7.150000e+00 -27.594 -22.765  -8.301 -109.047  -8.247 -109.354 -27.188 -43.814
7.200000e+00 -27.566 -23.141  -8.302 -109.793  -8.248 -110.106 -27.129 -42.733
7.250000e+00 -27.549 -23.592  -8.304 -110.554  -8.249 -110.875 -27.118 -44.957
7.300000e+00 -27.540 -24.255  -8.306 -111.311  -8.252 -111.631 -27.152 -44.841
7.350000e+00 -27.502 -24.182  -8.307 -112.059  -8.254 -112.398 -27.150 -43.946
7.400000e+00 -27.473 -25.230  -8.309 -112.817  -8.255 -113.156 -27.102 -45.069
7.450000e+00 -27.445 -25.126  -8.311 -113.583  -8.257 -113.920 -27.178 -45.893
7.500000e+00 -27.415 -25.862  -8.313 -114.337  -8.258 -114.663 -27.158 -44.822
7.550000e+00 -27.374 -25.991  -8.315 -115.087  -8.259 -115.425 -27.153 -46.351
7.600000e+00 -27.369 -26.831  -8.317 -115.851  -8.261 -116.192 -27.156 -46.990
7.650000e+00 -27.343 -26.618  -8.319 -116.604  -8.263 -116.943 -27.189 -46.677
7.700000e+00 -27.333 -27.411  -8.320 -117.363  -8.265 -117.695 -27.120 -47.280
7.750000e+00 -27.324 -27.633  -8.322 -118.118  -8.267 -118.469 -27.181 -48.481
7.800000e+00 -27.334 -28.116  -8.323 -118.869  -8.269 -119.221 -27.154 -47.942
7.850000e+00 -27.304 -28.080  -8.326 -119.636  -8.271 -119.980 -27.140 -48.606
7.900000e+00 -27.344 -29.083  -8.327 -120.392  -8.274 -120.745 -27.122 -50.605
7.950000e+00 -27.352 -28.763  -8.329 -121.138  -8.277 -121.508 -27.159 -49.527
     8 -27.371 -29.070  -8.330 -121.886  -8.279 -122.255 -27.098 -50.479
8.050000e+00 -27.382 -30.294  -8.332 -122.651  -8.281 -123.029 -27.155 -51.188
8.100000e+00 -27.431 -30.120  -8.333 -123.407  -8.283 -123.775 -27.184 -51.028
8.150000e+00 -27.401 -30.539  -8.334 -124.163  -8.285 -124.536 -27.198 -51.180
8.200000e+00 -27.404 -31.457  -8.336 -124.939  -8.287 -125.303 -27.231 -53.206
8.250000e+00 -27.407 -32.150  -8.338 -125.695  -8.289 -126.060 -27.297 -52.337
8.300000e+00 -27.403 -31.831  -8.340 -126.459  -8.291 -126.813 -27.270 -52.788
8.350000e+00 -27.396 -32.685  -8.343 -127.214  -8.292 -127.574 -27.310 -54.095
8.400000e+00 -27.426 -32.750  -8.345 -127.962  -8.294 -128.319 -27.373 -54.357
8.450000e+00 -27.428 -33.056  -8.347 -128.716  -8.295 -129.079 -27.342 -53.357
8.500000e+00 -27.434 -33.468  -8.349 -129.487  -8.297 -129.853 -27.346 -56.347
8.550000e+00 -27.451 -34.070  -8.352 -130.231  -8.299 -130.608 -27.400 -56.135
8.600000e+00 -27.451 -33.769  -8.353 -130.988  -8.301 -131.370 -27.402 -55.370
8.650000e+00 -27.502 -34.648  -8.354 -131.753  -8.303 -132.121 -27.379 -57.103
8.700000e+00 -27.538 -34.364  -8.356 -132.507  -8.305 -132.884 -27.475 -57.593
8.750000e+00 -27.609 -34.795  -8.357 -133.276  -8.306 -133.654 -27.478 -57.642
8.800000e+00 -27.671 -36.172  -8.359 -134.047  -8.308 -134.420 -27.510 -58.158
8.850000e+00 -27.766 -35.125  -8.361 -134.796  -8.311 -135.173 -27.561 -59.601
8.900000e+00 -27.782 -36.613  -8.363 -135.554  -8.314 -135.945 -27.627 -57.726
8.950000e+00 -27.860 -36.489  -8.365 -136.321  -8.315 -136.710 -27.655 -59.983
     9 -27.893 -37.349  -8.368 -137.079  -8.317 -137.453 -27.797 -59.039
9.050000e+00 -27.947 -37.175  -8.370 -137.849  -8.319 -138.217 -27.863 -59.820
9.100000e+00 -27.949 -38.328  -8.372 -138.596  -8.321 -138.994 -27.912 -59.856
9.150000e+00 -28.016 -38.782  -8.374 -139.349  -8.322 -139.746 -28.015 -62.904
9.200000e+00 -28.050 -39.377  -8.376 -140.112  -8.325 -140.507 -28.076 -60.344
9.250000e+00 -28.101 -38.455  -8.377 -140.874  -8.327 -141.269 -28.080 -62.568
9.300000e+00 -28.118 -39.795  -8.379 -141.615  -8.329 -142.033 -28.184 -63.194
9.350000e+00 -28.192 -39.274  -8.380 -142.380  -8.331 -142.796 -28.260 -63.374
9.400000e+00 -28.198 -39.949  -8.382 -143.143  -8.334 -143.587 -28.242 -63.157
9.450000e+00 -28.242 -39.348  -8.383 -143.902  -8.337 -144.334 -28.323 -66.609
9.500000e+00 -28.283 -40.328  -8.386 -144.660  -8.340 -145.104 -28.375 -64.295
9.550000e+00 -28.358 -39.134  -8.388 -145.431  -8.342 -145.852 -28.359 -65.768
9.600000e+00 -28.442 -40.674  -8.391 -146.194  -8.344 -146.612 -28.420 -66.837
9.650000e+00 -28.557 -39.578  -8.394 -146.949  -8.346 -147.384 -28.572 -66.558
9.700000e+00 -28.664 -40.682  -8.396 -147.703  -8.348 -148.161 -28.579 -65.136
9.750000e+00 -28.770 -40.175  -8.399 -148.472  -8.351 -148.916 -28.692 -67.677
9.800000e+00 -28.873 -41.088  -8.402 -149.233  -8.354 -149.688 -28.855 -67.420
9.850000e+00 -28.946 -40.931  -8.405 -149.971  -8.355 -150.436 -28.962 -65.747
9.900000e+00 -29.027 -42.085  -8.408 -150.733  -8.357 -151.211 -29.055 -67.973
9.950000e+00 -29.104 -41.670  -8.410 -151.487  -8.360 -151.975 -29.245 -68.097
    10 -29.171 -42.446  -8.411 -152.247  -8.362 -152.738 -29.335 -67.806
1.005000e+01 -29.247 -42.376  -8.412 -153.010  -8.365 -153.506 -29.417 -69.429
1.010000e+01 -29.325 -42.937  -8.414 -153.781  -8.368 -154.275 -29.560 -70.431
1.015000e+01 -29.397 -42.061  -8.415 -154.540  -8.371 -155.005 -29.596 -69.531
1.020000e+01 -29.429 -42.728  -8.417 -155.325  -8.373 -155.771 -29.640 -72.465
1.025000e+01 -29.474 -42.766  -8.420 -156.077  -8.376 -156.532 -29.752 -72.699
1.030000e+01 -29.533 -42.919  -8.422 -156.846  -8.377 -157.285 -29.791 -71.944
1.035000e+01 -29.592 -41.803  -8.425 -157.603  -8.379 -158.037 -29.772 -73.033
1.040000e+01 -29.644 -41.807  -8.427 -158.373  -8.382 -158.812 -29.907 -75.431
1.045000e+01 -29.758 -42.477  -8.430 -159.121  -8.384 -159.580 -29.980 -72.399
1.050000e+01 -29.895 -41.473  -8.432 -159.888  -8.385 -160.333 -30.026 -73.625
1.055000e+01 -29.995 -41.160  -8.435 -160.639  -8.388 -161.101 -30.171 -73.769
1.060000e+01 -30.087 -41.599  -8.437 -161.419  -8.391 -161.863 -30.371 -73.543
1.065000e+01 -30.226 -42.767  -8.439 -162.166  -8.392 -162.636 -30.453 -72.529
1.070000e+01 -30.329 -41.595  -8.442 -162.929  -8.395 -163.412 -30.716 -75.290
1.075000e+01 -30.423 -41.869  -8.444 -163.691  -8.397 -164.170 -30.926 -72.720
1.080000e+01 -30.519 -42.023  -8.447 -164.461  -8.400 -164.933 -31.078 -73.495
1.085000e+01 -30.647 -42.332  -8.449 -165.213  -8.403 -165.706 -31.223 -76.092
1.090000e+01 -30.720 -41.930  -8.451 -165.983  -8.407 -166.470 -31.465 -76.035
1.095000e+01 -30.797 -41.833  -8.453 -166.741  -8.411 -167.237 -31.490 -75.173
    11 -30.856 -41.473  -8.457 -167.520  -8.415 -168.012 -31.617 -78.121
1.105000e+01 -30.918 -41.230  -8.461 -168.293  -8.418 -168.769 -31.757 -78.278
1.110000e+01 -30.940 -40.261  -8.464 -169.036  -8.419 -169.508 -31.812 -77.483
1.115000e+01 -31.005 -40.622  -8.466 -169.802  -8.421 -170.257 -31.876 -79.529
1.120000e+01 -31.101 -39.631  -8.468 -170.546  -8.422 -171.028 -32.038 -79.337
1.125000e+01 -31.200 -38.969  -8.470 -171.310  -8.425 -171.812 -32.077 -77.339
1.130000e+01 -31.299 -38.867  -8.472 -172.092  -8.427 -172.588 -32.192 -80.740
1.135000e+01 -31.462 -39.107  -8.475 -172.871  -8.432 -173.347 -32.418 -78.732
1.140000e+01 -31.580 -37.088  -8.478 -173.602  -8.435 -174.106 -32.557 -77.143
1.145000e+01 -31.716 -37.693  -8.481 -174.380  -8.438 -174.865 -32.677 -77.957
1.150000e+01 -31.788 -36.715  -8.483 -175.155  -8.440 -175.641 -33.017 -79.874
1.155000e+01 -31.934 -38.176  -8.486 -175.921  -8.443 -176.404 -33.200 -75.895
1.160000e+01 -32.050 -37.059  -8.488 -176.676  -8.445 -177.180 -33.353 -77.916
1.165000e+01 -32.148 -36.547  -8.492 -177.456  -8.449 -177.942 -33.674 -80.401
1.170000e+01 -32.208 -37.496  -8.495 -178.202  -8.452 -178.718 -33.891 -77.075
1.175000e+01 -32.325 -37.427  -8.498 -178.985  -8.456 -179.495 -33.987 -79.899
1.180000e+01 -32.372 -35.655  -8.501 -179.728  -8.459 179.750 -34.217 -82.076
1.185000e+01 -32.385 -35.533  -8.504 179.507  -8.463 178.997 -34.420 -80.733
1.190000e+01 -32.386 -34.571  -8.506 178.747  -8.466 178.215 -34.380 -82.176
1.195000e+01 -32.392 -35.200  -8.509 177.983  -8.470 177.460 -34.586 -84.331
    12 -32.392 -33.627  -8.511 177.230  -8.473 176.709 -34.680 -82.440
1.205000e+01 -32.423 -33.259  -8.513 176.459  -8.476 175.954 -34.713 -80.692
1.210000e+01 -32.442 -31.669  -8.516 175.683  -8.480 175.173 -34.876 -84.710
1.215000e+01 -32.563 -31.801  -8.520 174.945  -8.483 174.431 -35.127 -79.170
1.220000e+01 -32.667 -29.529  -8.523 174.173  -8.484 173.680 -35.177 -80.040
1.225000e+01 -32.773 -28.188  -8.527 173.412  -8.486 172.899 -35.492 -82.008
1.230000e+01 -32.873 -28.019  -8.529 172.641  -8.489 172.131 -35.827 -78.846
1.235000e+01 -33.007 -26.571  -8.531 171.902  -8.490 171.340 -36.039 -76.411
1.240000e+01 -33.109 -25.742  -8.534 171.119  -8.494 170.561 -36.447 -79.410
1.245000e+01 -33.255 -25.288  -8.537 170.375  -8.498 169.800 -37.062 -76.467
1.250000e+01 -33.433 -24.383  -8.538 169.561  -8.501 169.041 -37.294 -74.287
1.255000e+01 -33.554 -24.114  -8.540 168.813  -8.503 168.250 -37.748 -81.064
1.260000e+01 -33.651 -24.302  -8.543 168.018  -8.506 167.517 -38.247 -81.551
1.265000e+01 -33.676 -24.967  -8.545 167.251  -8.507 166.734 -38.397 -76.041
1.270000e+01 -33.692 -23.764  -8.549 166.454  -8.509 165.972 -38.509 -86.704
1.275000e+01 -33.608 -23.756  -8.551 165.716  -8.512 165.194 -38.887 -83.705
1.280000e+01 -33.554 -22.959  -8.555 164.937  -8.516 164.429 -38.799 -81.156
1.285000e+01 -33.504 -24.684  -8.557 164.179  -8.520 163.637 -38.748 -87.680
1.290000e+01 -33.512 -22.636  -8.560 163.424  -8.523 162.886 -38.918 -86.669
1.295000e+01 -33.405 -23.480  -8.560 162.684  -8.527 162.123 -38.801 -82.167
    13 -33.315 -22.467  -8.563 161.927  -8.530 161.358 -38.675 -83.737
1.305000e+01 -33.260 -23.580  -8.564 161.138  -8.533 160.595 -38.987 -82.912
1.310000e+01 -33.189 -18.858  -8.566 160.407  -8.535 159.859 -39.066 -73.549
1.315000e+01 -33.079 -17.595  -8.568 159.626  -8.537 159.077 -39.248 -77.284
1.320000e+01 -33.032 -16.479  -8.572 158.873  -8.539 158.331 -39.778 -73.412
1.325000e+01 -33.107 -16.365  -8.574 158.079  -8.541 157.574 -40.271 -67.503
1.330000e+01 -33.095 -13.264  -8.577 157.314  -8.543 156.781 -40.570 -65.456
1.335000e+01 -33.160 -13.766  -8.582 156.520  -8.546 155.994 -41.673 -69.044
1.340000e+01 -33.255 -12.669  -8.586 155.769  -8.548 155.217 -42.329 -55.928
1.345000e+01 -33.394 -10.392  -8.590 154.935  -8.552 154.449 -42.872 -59.839
1.350000e+01 -33.370  -9.257  -8.593 154.212  -8.556 153.676 -43.890 -68.293
1.355000e+01 -33.467  -9.248  -8.596 153.474  -8.558 152.914 -44.973 -54.803
1.360000e+01 -33.458  -8.291  -8.597 152.713  -8.561 152.125 -45.000 -50.379
1.365000e+01 -33.441  -7.108  -8.597 151.941  -8.565 151.375 -45.873 -69.657
1.370000e+01 -33.391  -9.589  -8.595 151.195  -8.568 150.597 -46.346 -58.686
1.375000e+01 -33.442  -7.980  -8.596 150.393  -8.571 149.818 -46.196 -54.930
1.380000e+01 -33.374  -9.294  -8.597 149.640  -8.573 149.077 -45.851 -67.913
1.385000e+01 -33.339  -8.131  -8.599 148.844  -8.575 148.316 -46.077 -62.754
1.390000e+01 -33.231  -9.910  -8.602 148.082  -8.577 147.548 -45.348 -54.624
1.395000e+01 -33.066  -7.564  -8.606 147.310  -8.578 146.771 -45.120 -56.896
    14 -32.970 -10.379  -8.610 146.543  -8.581 145.999 -45.272 -52.971
1.405000e+01 -32.827  -5.019  -8.614 145.751  -8.584 145.199 -45.309 -36.607
1.410000e+01 -32.729  -7.031  -8.617 144.999  -8.588 144.442 -45.214 -40.262
1.415000e+01 -32.647  -5.533  -8.621 144.237  -8.591 143.664 -45.829 -35.559
1.420000e+01 -32.707  -5.837  -8.624 143.466  -8.595 142.883 -45.897 -21.686
1.425000e+01 -32.537  -2.830  -8.626 142.714  -8.599 142.122 -45.794 -20.428
1.430000e+01 -32.535  -5.044  -8.627 141.924  -8.602 141.355 -46.292 -16.759
1.435000e+01 -32.437  -3.222  -8.629 141.186  -8.605 140.563 -46.430  -0.248
1.440000e+01 -32.439  -1.737  -8.629 140.441  -8.609 139.833 -46.000  -0.110
1.445000e+01 -32.242  -1.609  -8.630 139.644  -8.611 139.042 -46.326 -10.623
1.450000e+01 -32.309  -3.052  -8.632 138.864  -8.612 138.281 -46.498   5.742
1.455000e+01 -32.256  -2.065  -8.635 138.098  -8.614 137.504 -45.783   8.147
1.460000e+01 -32.251  -1.005  -8.638 137.288  -8.617 136.751 -45.592  -4.882
1.465000e+01 -32.185  -4.460  -8.641 136.519  -8.619 135.912 -45.895   0.668
1.470000e+01 -32.217  -1.933  -8.644 135.752  -8.622 135.164 -45.256  15.707
1.475000e+01 -32.125  -3.238  -8.648 134.991  -8.627 134.408 -44.597   0.917
1.480000e+01 -31.994  -0.943  -8.651 134.174  -8.631 133.620 -44.473   0.705
1.485000e+01 -31.912  -3.421  -8.653 133.410  -8.635 132.819 -43.951  12.485
1.490000e+01 -31.789  -0.392  -8.656 132.641  -8.639 132.095 -43.002  13.720
1.495000e+01 -31.738  -1.001  -8.658 131.889  -8.643 131.333 -42.776  14.289
    15 -31.622   0.189  -8.660 131.064  -8.645 130.573 -42.587  24.287
1.505000e+01 -31.685  -0.026  -8.663 130.290  -8.648 129.812 -42.270  27.517
1.510000e+01 -31.630   0.590  -8.667 129.511  -8.649 129.054 -42.156  28.059
1.515000e+01 -31.706   1.419  -8.671 128.749  -8.651 128.273 -42.210  29.624
1.520000e+01 -31.600   0.944  -8.677 127.948  -8.654 127.461 -42.023  34.089
1.525000e+01 -31.688   2.363  -8.681 127.156  -8.658 126.688 -41.944  31.171
1.530000e+01 -31.618   0.981  -8.688 126.390  -8.662 125.906 -42.012  35.876
1.535000e+01 -31.669   4.712  -8.693 125.626  -8.666 125.153 -42.131  36.486
1.540000e+01 -31.638  -0.444  -8.699 124.874  -8.670 124.372 -42.172  37.285
1.545000e+01 -31.719   4.371  -8.704 124.052  -8.673 123.651 -42.239  30.055
1.550000e+01 -31.718  -1.609  -8.709 123.292  -8.676 122.812 -41.932  32.422
1.555000e+01 -31.618   4.075  -8.712 122.521  -8.680 122.054 -41.641  21.412
1.560000e+01 -31.615  -3.426  -8.718 121.736  -8.684 121.230 -41.195  28.509
1.565000e+01 -31.449   3.287  -8.722 120.959  -8.688 120.528 -40.570  27.669
1.570000e+01 -31.413   0.039  -8.727 120.189  -8.692 119.715 -39.930  28.014
1.575000e+01 -31.166   2.771  -8.732 119.393  -8.694 118.978 -39.611  25.944
1.580000e+01 -31.197   1.387  -8.737 118.682  -8.697 118.200 -39.060  34.727
1.585000e+01 -30.996   1.567  -8.742 117.866  -8.700 117.428 -38.414  31.723
1.590000e+01 -31.005   3.255  -8.748 117.115  -8.704 116.632 -38.087  32.317
1.595000e+01 -30.847   0.418  -8.757 116.318  -8.707 115.858 -37.929  34.377
    16 -30.915   4.132  -8.764 115.583  -8.711 115.061 -37.615  42.356
1.605000e+01 -30.822   2.623  -8.772 114.793  -8.716 114.316 -37.536  37.022
1.610000e+01 -30.814   5.726  -8.779 114.083  -8.722 113.535 -37.588  40.050
1.615000e+01 -30.789   2.177  -8.786 113.316  -8.726 112.723 -37.624  39.826
1.620000e+01 -30.801   5.828  -8.790 112.550  -8.731 111.964 -37.556  40.335
1.625000e+01 -30.820   3.051  -8.793 111.826  -8.734 111.238 -37.642  40.874
1.630000e+01 -30.767   6.182  -8.795 111.073  -8.737 110.476 -37.571  40.618
1.635000e+01 -30.850   2.302  -8.798 110.310  -8.738 109.684 -37.505  38.751
1.640000e+01 -30.780   5.614  -8.799 109.531  -8.739 108.914 -37.348  36.230
1.645000e+01 -30.798   3.831  -8.801 108.778  -8.742 108.117 -37.040  36.648
1.650000e+01 -30.606   5.063  -8.803 108.002  -8.746 107.304 -36.664  33.913
1.655000e+01 -30.647   3.979  -8.807 107.254  -8.752 106.498 -36.336  33.288
1.660000e+01 -30.424   4.864  -8.810 106.439  -8.757 105.738 -35.918  35.415
1.665000e+01 -30.419   5.419  -8.814 105.678  -8.761 104.987 -35.517  33.259
1.670000e+01 -30.220   3.751  -8.817 104.908  -8.765 104.235 -35.264  32.699
1.675000e+01 -30.263   6.140  -8.821 104.165  -8.768 103.473 -34.850  35.824
1.680000e+01 -30.069   4.141  -8.826 103.385  -8.769 102.677 -34.521  32.623
1.685000e+01 -30.060   6.975  -8.829 102.618  -8.773 101.889 -34.360  33.774
1.690000e+01 -29.928   4.075  -8.831 101.847  -8.777 101.102 -34.189  38.106
1.695000e+01 -29.931   7.991  -8.833 101.108  -8.781 100.326 -33.875  37.186
    17 -29.781   5.471  -8.836 100.325  -8.784  99.555 -33.947  34.057
1.705000e+01 -29.744   7.524  -8.837  99.557  -8.788  98.781 -33.829  37.762
1.710000e+01 -29.696   5.103  -8.839  98.758  -8.791  97.978 -33.647  37.991
1.715000e+01 -29.648   8.142  -8.841  97.985  -8.796  97.180 -33.505  34.078
1.720000e+01 -29.575   6.116  -8.846  97.217  -8.800  96.403 -33.552  36.582
1.725000e+01 -29.517   7.712  -8.849  96.432  -8.805  95.634 -33.278  37.398
1.730000e+01 -29.471   6.332  -8.852  95.630  -8.808  94.854 -33.202  34.800
1.735000e+01 -29.329   8.192  -8.854  94.881  -8.811  94.063 -33.068  34.202
1.740000e+01 -29.230   7.532  -8.857  94.142  -8.814  93.309 -32.846  35.573
1.745000e+01 -29.110   7.563  -8.861  93.311  -8.818  92.501 -32.597  31.253
1.750000e+01 -29.034   8.236  -8.863  92.532  -8.823  91.676 -32.468  33.940
1.755000e+01 -28.913   8.037  -8.865  91.747  -8.827  90.934 -32.186  33.026
1.760000e+01 -28.853   7.970  -8.869  90.984  -8.831  90.173 -31.990  31.370
1.765000e+01 -28.746   7.797  -8.872  90.209  -8.835  89.383 -31.867  30.894
1.770000e+01 -28.670   7.931  -8.875  89.388  -8.838  88.583 -31.626  32.459
1.775000e+01 -28.566   8.109  -8.878  88.609  -8.842  87.802 -31.408  30.000
1.780000e+01 -28.490   8.271  -8.882  87.847  -8.847  87.033 -31.287  30.127
1.785000e+01 -28.400   7.689  -8.887  87.029  -8.853  86.230 -31.083  31.739
1.790000e+01 -28.336   8.149  -8.891  86.267  -8.858  85.448 -30.905  30.124
1.795000e+01 -28.233   7.153  -8.895  85.506  -8.863  84.677 -30.830  30.071
    18 -28.146   7.419  -8.899  84.710  -8.867  83.895 -30.653  31.330
1.805000e+01 -28.055   6.323  -8.904  83.882  -8.872  83.093 -30.468  28.532
1.810000e+01 -27.946   7.677  -8.907  83.136  -8.875  82.331 -30.370  27.909
1.815000e+01 -27.835   6.487  -8.912  82.353  -8.879  81.546 -30.218  29.214
1.820000e+01 -27.716   6.912  -8.917  81.569  -8.883  80.743 -29.986  27.731
1.825000e+01 -27.608   5.973  -8.920  80.772  -8.887  79.979 -29.922  26.304
1.830000e+01 -27.459   6.452  -8.923  79.989  -8.890  79.189 -29.755  26.466
1.835000e+01 -27.352   5.154  -8.928  79.226  -8.896  78.363 -29.557  26.238
1.840000e+01 -27.226   5.535  -8.931  78.414  -8.902  77.594 -29.399  22.774
1.845000e+01 -27.118   5.180  -8.935  77.624  -8.906  76.810 -29.224  25.790
1.850000e+01 -26.998   4.853  -8.939  76.829  -8.910  76.038 -28.993  22.653
1.855000e+01 -26.903   4.561  -8.944  76.088  -8.915  75.265 -28.888  23.724
1.860000e+01 -26.793   4.732  -8.949  75.270  -8.919  74.492 -28.744  23.850
1.865000e+01 -26.687   4.031  -8.953  74.515  -8.922  73.681 -28.581  23.062
1.870000e+01 -26.579   3.873  -8.957  73.710  -8.926  72.896 -28.508  21.230
1.875000e+01 -26.486   3.048  -8.962  72.964  -8.930  72.133 -28.405  22.661
1.880000e+01 -26.403   3.145  -8.965  72.134  -8.933  71.357 -28.233  21.759
1.885000e+01 -26.311   3.210  -8.968  71.363  -8.938  70.530 -28.176  21.016
1.890000e+01 -26.230   2.781  -8.973  70.585  -8.941  69.765 -28.092  21.196
1.895000e+01 -26.151   2.829  -8.977  69.800  -8.946  68.951 -27.943  21.490
    19 -26.072   2.544  -8.982  68.970  -8.952  68.157 -27.841  17.592
1.905000e+01 -25.966   2.566  -8.985  68.250  -8.956  67.334 -27.728  18.983
1.910000e+01 -25.876   1.682  -8.990  67.460  -8.961  66.556 -27.528  17.264
1.915000e+01 -25.788   1.371  -8.995  66.670  -8.965  65.778 -27.398  16.248
1.920000e+01 -25.717   1.159  -8.999  65.881  -8.969  64.998 -27.289  16.429
1.925000e+01 -25.625   0.756  -9.004  65.077  -8.973  64.217 -27.107  16.247
1.930000e+01 -25.562  -0.185  -9.009  64.295  -8.978  63.386 -26.962  14.123
1.935000e+01 -25.477  -0.484  -9.013  63.541  -8.983  62.620 -26.829  14.422
1.940000e+01 -25.391  -1.122  -9.017  62.776  -8.988  61.847 -26.640  14.233
1.945000e+01 -25.278  -1.455  -9.021  61.975  -8.992  61.072 -26.491  14.204
1.950000e+01 -25.192  -1.915  -9.025  61.211  -8.996  60.276 -26.407  14.237
1.955000e+01 -25.091  -1.912  -9.029  60.397  -9.001  59.489 -26.309  15.122
1.960000e+01 -25.005  -2.141  -9.035  59.620  -9.007  58.676 -26.223  13.789
1.965000e+01 -24.911  -2.812  -9.039  58.820  -9.012  57.896 -26.179  13.177
1.970000e+01 -24.855  -2.741  -9.043  58.045  -9.018  57.094 -26.061  13.352
1.975000e+01 -24.759  -2.835  -9.048  57.261  -9.023  56.333 -26.000  11.702
1.980000e+01 -24.686  -3.074  -9.052  56.461  -9.027  55.549 -25.955  11.873
1.985000e+01 -24.614  -3.519  -9.056  55.654  -9.031  54.763 -25.893  12.508
1.990000e+01 -24.545  -2.902  -9.060  54.919  -9.035  53.975 -25.808   9.954
1.995000e+01 -24.461  -3.762  -9.065  54.095  -9.038  53.170 -25.792   9.424
    20 -24.410  -4.033  -9.069  53.330  -9.043  52.384 -25.671   8.897
2.005000e+01 -24.356  -4.206  -9.074  52.525  -9.048  51.558 -25.541   7.836
2.010000e+01 -24.306  -4.705  -9.078  51.780  -9.054  50.797 -25.443   6.983
2.015000e+01 -24.257  -4.867  -9.084  50.974  -9.058  49.977 -25.325   7.157
2.020000e+01 -24.206  -5.795  -9.087  50.187  -9.064  49.192 -25.178   6.563
2.025000e+01 -24.163  -5.983  -9.093  49.405  -9.069  48.408 -25.068   5.379
2.030000e+01 -24.105  -6.405  -9.097  48.616  -9.074  47.635 -24.931   5.957
2.035000e+01 -24.028  -6.591  -9.101  47.866  -9.079  46.821 -24.803   5.121
2.040000e+01 -23.967  -7.816  -9.106  47.052  -9.085  46.088 -24.702   5.232
2.045000e+01 -23.922  -7.869  -9.111  46.293  -9.089  45.284 -24.617   5.582
2.050000e+01 -23.847  -7.941  -9.115  45.494  -9.093  44.509 -24.523   4.749
2.055000e+01 -23.773  -8.510  -9.120  44.704  -9.097  43.711 -24.474   4.399
2.060000e+01 -23.726  -9.392  -9.125  43.921  -9.101  42.947 -24.393   4.293
2.065000e+01 -23.661  -8.771  -9.128  43.153  -9.106  42.144 -24.330   3.865
2.070000e+01 -23.577  -9.243  -9.133  42.369  -9.111  41.366 -24.303   4.000
2.075000e+01 -23.509  -9.408  -9.138  41.589  -9.117  40.583 -24.267   4.140
2.080000e+01 -23.446  -9.723  -9.143  40.762  -9.120  39.791 -24.225   3.335
2.085000e+01 -23.377  -9.613  -9.146  40.007  -9.125  39.038 -24.192   1.939
2.090000e+01 -23.326 -10.119  -9.151  39.233  -9.129  38.215 -24.143   1.884
2.095000e+01 -23.282  -9.847  -9.154  38.460  -9.133  37.418 -24.024   1.173
    21 -23.245 -10.492  -9.157  37.663  -9.137  36.615 -23.952   0.607
2.105000e+01 -23.216 -10.567  -9.160  36.877  -9.141  35.857 -23.873   0.012
2.110000e+01 -23.175 -11.074  -9.164  36.106  -9.144  35.068 -23.786   0.931
2.115000e+01 -23.127 -11.246  -9.168  35.276  -9.146  34.290 -23.683  -0.993
2.120000e+01 -23.089 -11.920  -9.173  34.510  -9.150  33.491 -23.606  -0.569
2.125000e+01 -23.042 -11.649  -9.177  33.680  -9.153  32.712 -23.491  -1.798
2.130000e+01 -22.986 -12.314  -9.182  32.937  -9.157  31.915 -23.389  -1.182
2.135000e+01 -22.961 -12.714  -9.187  32.145  -9.160  31.167 -23.303  -1.582
2.140000e+01 -22.911 -12.645  -9.191  31.370  -9.164  30.388 -23.231  -1.025
2.145000e+01 -22.836 -12.910  -9.196  30.549  -9.166  29.604 -23.182  -1.912
2.150000e+01 -22.767 -14.016  -9.200  29.783  -9.171  28.799 -23.143  -1.390
2.155000e+01 -22.721 -13.761  -9.203  28.985  -9.173  28.021 -23.100  -2.012
2.160000e+01 -22.618 -13.461  -9.206  28.233  -9.179  27.182 -23.060  -1.906
2.165000e+01 -22.553 -14.302  -9.210  27.428  -9.184  26.388 -23.043  -2.734
2.170000e+01 -22.504 -14.353  -9.213  26.645  -9.189  25.603 -22.991  -2.096
2.175000e+01 -22.463 -13.617  -9.218  25.811  -9.194  24.799 -22.957  -3.432
2.180000e+01 -22.403 -14.139  -9.222  25.026  -9.199  23.985 -22.906  -3.561
2.185000e+01 -22.383 -14.195  -9.229  24.241  -9.203  23.149 -22.844  -3.940
2.190000e+01 -22.353 -14.644  -9.233  23.454  -9.209  22.367 -22.757  -4.867
2.195000e+01 -22.335 -14.563  -9.239  22.667  -9.215  21.539 -22.692  -4.671
    22 -22.303 -14.679  -9.244  21.871  -9.220  20.770 -22.617  -5.363
2.205000e+01 -22.288 -14.898  -9.248  21.086  -9.226  19.952 -22.527  -4.867
2.210000e+01 -22.273 -15.157  -9.252  20.278  -9.231  19.190 -22.448  -6.004
2.215000e+01 -22.270 -15.166  -9.259  19.507  -9.238  18.351 -22.363  -5.970
2.220000e+01 -22.238 -15.549  -9.263  18.679  -9.243  17.543 -22.306  -5.992
2.225000e+01 -22.224 -16.227  -9.269  17.875  -9.250  16.739 -22.200  -5.561
2.230000e+01 -22.186 -16.516  -9.275  17.086  -9.257  15.998 -22.182  -6.128
2.235000e+01 -22.138 -16.666  -9.281  16.299  -9.265  15.182 -22.145  -5.776
2.240000e+01 -22.062 -17.312  -9.286  15.424  -9.271  14.371 -22.137  -5.388
2.245000e+01 -22.025 -17.603  -9.293  14.676  -9.280  13.574 -22.089  -6.204
2.250000e+01 -21.951 -17.361  -9.299  13.842  -9.287  12.791 -22.113  -6.404
2.255000e+01 -21.882 -17.864  -9.305  13.045  -9.294  12.007 -22.072  -6.668
2.260000e+01 -21.824 -18.274  -9.311  12.258  -9.302  11.213 -22.047  -6.623
2.265000e+01 -21.779 -17.936  -9.315  11.497  -9.309  10.419 -22.023  -7.794
2.270000e+01 -21.693 -17.590  -9.319  10.708  -9.315   9.610 -21.996  -7.391
2.275000e+01 -21.641 -18.341  -9.323   9.910  -9.321   8.837 -21.943  -8.388
2.280000e+01 -21.597 -18.076  -9.327   9.127  -9.328   8.043 -21.882  -8.758
2.285000e+01 -21.560 -18.112  -9.331   8.355  -9.334   7.247 -21.832  -9.282
2.290000e+01 -21.515 -17.933  -9.337   7.551  -9.339   6.438 -21.734  -9.439
2.295000e+01 -21.511 -18.374  -9.341   6.747  -9.345   5.676 -21.662  -9.810
    23 -21.502 -18.218  -9.347   5.952  -9.350   4.873 -21.567 -10.111
2.305000e+01 -21.505 -18.436  -9.353   5.166  -9.355   4.088 -21.502  -9.766
2.310000e+01 -21.492 -18.449  -9.360   4.356  -9.359   3.289 -21.417 -10.102
2.315000e+01 -21.488 -19.016  -9.365   3.510  -9.363   2.481 -21.363  -9.521
2.320000e+01 -21.479 -19.627  -9.372   2.708  -9.367   1.699 -21.302 -10.108
2.325000e+01 -21.458 -19.784  -9.377   1.888  -9.370   0.879 -21.287  -9.486
2.330000e+01 -21.417 -20.094  -9.382   1.082  -9.374   0.093 -21.265  -9.836
2.335000e+01 -21.382 -20.683  -9.387   0.238  -9.378  -0.742 -21.240  -9.275
2.340000e+01 -21.351 -21.015  -9.392  -0.516  -9.383  -1.491 -21.236 -10.926
2.345000e+01 -21.289 -21.310  -9.398  -1.375  -9.388  -2.383 -21.235 -10.011
2.350000e+01 -21.233 -21.825  -9.402  -2.184  -9.394  -3.178 -21.223 -10.980
2.355000e+01 -21.171 -22.055  -9.407  -2.962  -9.399  -3.971 -21.200 -10.660
2.360000e+01 -21.108 -21.991  -9.411  -3.736  -9.406  -4.723 -21.206 -11.973
2.365000e+01 -21.030 -22.562  -9.417  -4.595  -9.412  -5.586 -21.161 -11.614
2.370000e+01 -20.975 -22.447  -9.419  -5.401  -9.418  -6.370 -21.131 -13.054
2.375000e+01 -20.927 -22.533  -9.427  -6.199  -9.423  -7.166 -21.052 -12.724
2.380000e+01 -20.901 -22.101  -9.434  -6.991  -9.430  -7.942 -20.984 -13.356
2.385000e+01 -20.873 -22.383  -9.443  -7.777  -9.437  -8.806 -20.902 -13.670
2.390000e+01 -20.871 -22.416  -9.449  -8.592  -9.442  -9.620 -20.843 -13.130
2.395000e+01 -20.862 -22.115  -9.457  -9.344  -9.446 -10.327 -20.757 -13.153
    24 -20.847 -21.809  -9.460 -10.189  -9.449 -11.109 -20.723 -13.617
2.405000e+01 -20.826 -22.511  -9.465 -10.953  -9.454 -11.995 -20.666 -13.247
2.410000e+01 -20.845 -22.580  -9.469 -11.798  -9.459 -12.879 -20.604 -13.308
2.415000e+01 -20.843 -22.773  -9.475 -12.603  -9.465 -13.669 -20.593 -13.760
2.420000e+01 -20.842 -22.560  -9.479 -13.528  -9.471 -14.494 -20.592 -12.704
2.425000e+01 -20.844 -23.851  -9.485 -14.320  -9.478 -15.253 -20.559 -12.937
2.430000e+01 -20.863 -23.497  -9.493 -15.120  -9.481 -16.052 -20.571 -13.788
2.435000e+01 -20.835 -24.051  -9.498 -15.946  -9.484 -16.855 -20.608 -13.831
2.440000e+01 -20.798 -24.168  -9.504 -16.838  -9.489 -17.726 -20.570 -13.119
2.445000e+01 -20.782 -25.230  -9.511 -17.542  -9.493 -18.484 -20.550 -14.497
2.450000e+01 -20.750 -24.574  -9.520 -18.362  -9.500 -19.357 -20.560 -14.572
2.455000e+01 -20.696 -25.128  -9.524 -19.194  -9.506 -20.132 -20.542 -14.211
2.460000e+01 -20.650 -25.415  -9.529 -19.989  -9.514 -20.978 -20.481 -14.680
2.465000e+01 -20.619 -25.240  -9.532 -20.691  -9.519 -21.739 -20.468 -15.631
2.470000e+01 -20.564 -25.042  -9.538 -21.517  -9.527 -22.628 -20.405 -15.272
2.475000e+01 -20.526 -25.503  -9.542 -22.355  -9.534 -23.404 -20.352 -15.841
2.480000e+01 -20.494 -25.388  -9.546 -23.197  -9.541 -24.238 -20.287 -15.646
2.485000e+01 -20.475 -25.373  -9.552 -24.023  -9.548 -25.059 -20.253 -15.484
2.490000e+01 -20.450 -25.284  -9.562 -24.837  -9.556 -25.844 -20.186 -15.732
2.495000e+01 -20.435 -25.522  -9.568 -25.702  -9.562 -26.628 -20.143 -15.811
    25 -20.411 -25.540  -9.582 -26.530  -9.568 -27.434 -20.067 -15.773
