!Keysight Technologies,N5247B,US58420632,A.15.75.19
!Date: Wednesday, November 29, 2023 11:38:27
!Correction: S11(C  2-Port  ) 
!S21(C  2-Port  ) 
!S12(C  2-Port  ) 
!S22(C  2-Port  ) 
!S2P File: Measurements: S11, S21, S12, S22:
# Hz S  dB   R 50
10000000 -34.985447 -177.60127 -0.96755433 -0.13315013 -0.96968025 -0.13320127 -35.485977 -177.6562
20000000 -34.288776 173.44762 -0.99182975 -0.25850081 -0.99746549 -0.25501743 -34.478321 172.81476
30000000 -34.472355 173.86665 -1.0013111 -0.460354 -1.006416 -0.45477277 -34.758438 173.72217
40000000 -35.05954 169.39221 -1.0011076 -0.52991909 -1.0059487 -0.52895677 -35.350491 169.18315
50000000 -35.154984 166.78407 -1.0041533 -0.63409901 -1.0075431 -0.63810736 -35.48093 165.94138
60000000 -35.376316 166.45667 -1.0038642 -0.7415297 -1.0096662 -0.75138026 -35.756706 165.37935
70000000 -35.492241 165.9951 -1.0064862 -0.85484105 -1.0118978 -0.86350548 -35.884335 164.92175
80000000 -35.609138 165.13072 -1.0110862 -0.96019846 -1.0174387 -0.97399747 -36.007847 164.55029
90000000 -35.681786 164.51195 -1.0143118 -1.0607015 -1.0211378 -1.0800184 -36.085262 163.43665
100000000 -35.81683 162.80782 -1.0158615 -1.1524729 -1.0260944 -1.1703286 -36.274693 161.57596
110000000 -36.021656 161.49565 -1.0181788 -1.2523768 -1.0276732 -1.2510332 -36.393925 160.05954
120000000 -36.132641 160.63435 -1.0197607 -1.3505243 -1.0274945 -1.3288623 -36.559578 159.05017
130000000 -36.321629 159.45436 -1.0203942 -1.4392191 -1.0247492 -1.440558 -36.586826 158.29549
140000000 -36.55899 158.57811 -1.0210177 -1.5307021 -1.0256066 -1.536994 -36.742577 157.5712
150000000 -36.771362 157.59763 -1.0219694 -1.625658 -1.0268515 -1.6335303 -36.882782 157.2159
160000000 -36.991333 156.35728 -1.0227474 -1.7169 -1.0276691 -1.7225556 -37.005554 156.58243
170000000 -37.046322 155.5466 -1.0229495 -1.7991846 -1.0293659 -1.8172795 -37.172569 155.28149
180000000 -37.158886 154.61589 -1.0243372 -1.8949476 -1.0301745 -1.9102722 -37.247189 153.87209
190000000 -37.205448 153.30594 -1.026538 -1.9826568 -1.0319885 -2.0050094 -37.441742 152.73192
200000000 -37.338963 152.41583 -1.0282073 -2.0751677 -1.0352948 -2.1024146 -37.523792 151.68651
210000000 -37.424809 151.86971 -1.0293788 -2.1679282 -1.0396403 -2.1862819 -37.693916 150.47385
220000000 -37.618973 150.30434 -1.0318694 -2.2657413 -1.0422822 -2.2656379 -37.858776 149.28401
230000000 -37.896545 148.6593 -1.0366433 -2.3585153 -1.0446094 -2.3510027 -38.075775 147.71596
240000000 -38.135082 147.51205 -1.0402944 -2.4509301 -1.0465459 -2.4498732 -38.203514 146.16428
250000000 -38.312111 145.8636 -1.0448923 -2.5367987 -1.0499725 -2.5416343 -38.559536 144.99968
260000000 -38.575901 144.43935 -1.0461752 -2.6191642 -1.0511539 -2.6256819 -38.561874 145.60606
270000000 -38.823498 142.53755 -1.0487874 -2.7055132 -1.0534219 -2.7191627 -38.621822 144.41843
280000000 -38.99931 141.05905 -1.0491598 -2.7914968 -1.0544906 -2.8083005 -38.771191 143.22804
290000000 -39.217236 139.82784 -1.0505136 -2.8729074 -1.0555942 -2.8963635 -38.946518 142.1485
300000000 -39.420879 139.24254 -1.0508279 -2.9573128 -1.0582922 -2.9842992 -39.064629 140.99458
310000000 -39.492493 138.76445 -1.0518975 -3.0402691 -1.0601852 -3.0609961 -39.274254 140.07463
320000000 -39.802841 138.18085 -1.0524408 -3.1210256 -1.0630926 -3.136821 -39.420929 138.68071
330000000 -40.137203 136.47772 -1.0556481 -3.2067738 -1.064682 -3.2103462 -39.690037 137.44162
340000000 -40.515961 135.15683 -1.0594487 -3.2881885 -1.0659994 -3.2869956 -39.988018 136.53677
350000000 -40.865101 133.62503 -1.0627501 -3.3586769 -1.0689737 -3.3765805 -40.345402 135.01724
360000000 -41.083633 131.96431 -1.0650995 -3.4396122 -1.0727899 -3.4589241 -40.645039 134.2809
370000000 -41.300304 131.33492 -1.0659504 -3.5281923 -1.0748043 -3.5392616 -40.83876 134.69579
380000000 -41.546913 132.46007 -1.0673594 -3.6087856 -1.0748245 -3.6141639 -41.080406 135.54105
390000000 -41.514351 132.46304 -1.0693641 -3.6926236 -1.0754094 -3.7029853 -41.21587 136.53482
400000000 -41.715088 132.11227 -1.0709852 -3.7698312 -1.0761423 -3.7860644 -41.37112 136.52034
410000000 -42.138302 130.50812 -1.0712585 -3.8421299 -1.0793439 -3.8704352 -41.487667 136.20847
420000000 -42.33876 128.65442 -1.0728698 -3.9217761 -1.0821223 -3.9478664 -41.34026 136.15834
430000000 -42.672264 127.48794 -1.0739844 -4.0026999 -1.0840902 -4.0180821 -41.609745 134.49677
440000000 -43.010391 124.18239 -1.077639 -4.0814815 -1.0855008 -4.0931721 -41.816036 133.62935
450000000 -43.408302 120.22304 -1.0805614 -4.1476974 -1.0877472 -4.1713524 -42.074986 132.32208
460000000 -43.688587 117.2171 -1.083468 -4.2257318 -1.0909305 -4.2439971 -42.448868 129.71313
470000000 -43.69812 117.41366 -1.0836082 -4.3030591 -1.0927339 -4.3212233 -42.87159 127.73358
480000000 -43.701469 117.71108 -1.082587 -4.3864536 -1.0933402 -4.3931727 -43.133114 128.35901
490000000 -43.789612 120.12343 -1.0839378 -4.4677343 -1.0925157 -4.4728942 -43.478024 128.35051
500000000 -44.284069 120.6067 -1.0859742 -4.5445337 -1.0933435 -4.5490932 -43.77235 128.15709
510000000 -44.571217 120.87102 -1.0881296 -4.6241055 -1.0948544 -4.6312442 -43.87389 128.96342
520000000 -44.96085 120.6656 -1.0906399 -4.7013507 -1.0974245 -4.7084441 -44.221416 127.66881
530000000 -45.209072 115.41138 -1.0915388 -4.7767115 -1.0990156 -4.789988 -44.509224 127.1556
540000000 -45.739002 110.87469 -1.0936924 -4.8563604 -1.1011611 -4.8652458 -44.635662 127.86886
550000000 -46.115471 105.30915 -1.0964398 -4.9267287 -1.1033772 -4.9389653 -44.862789 127.04879
560000000 -46.671017 99.479012 -1.0983125 -4.9939952 -1.1055554 -5.0150447 -45.139191 125.50205
570000000 -46.67852 96.567253 -1.0990826 -5.0723376 -1.1072707 -5.0923247 -45.623249 123.8288
580000000 -46.611774 97.328667 -1.0990579 -5.15589 -1.1081419 -5.1588511 -46.077938 123.02395
590000000 -46.592148 100.53381 -1.0983268 -5.2326856 -1.1082221 -5.2401204 -46.289021 121.95264
600000000 -46.742123 100.21241 -1.0995476 -5.3081846 -1.107419 -5.3123026 -46.387096 120.32355
610000000 -46.975449 101.73379 -1.1010737 -5.3874989 -1.1076108 -5.3895817 -46.704624 119.2644
620000000 -47.372009 101.29363 -1.1013527 -5.4602523 -1.1086569 -5.4626665 -46.831059 117.45863
630000000 -47.701904 97.497833 -1.103742 -5.5325274 -1.1100992 -5.5476537 -47.185783 114.78988
640000000 -47.960743 95.224152 -1.1057334 -5.6053338 -1.1116153 -5.6164989 -47.862286 112.89823
650000000 -48.544701 88.912544 -1.1080855 -5.6859426 -1.1133159 -5.6944842 -48.110634 111.07722
660000000 -48.731453 82.872459 -1.1108263 -5.753252 -1.1162113 -5.7724504 -48.408772 107.74378
670000000 -48.699848 74.911224 -1.1114495 -5.8256526 -1.1177205 -5.8508725 -49.110821 107.35985
680000000 -48.817928 70.65052 -1.1101831 -5.9044929 -1.1208292 -5.9204025 -49.883545 106.75542
690000000 -49.158024 67.342545 -1.1102724 -5.9878335 -1.1215839 -5.9931002 -50.136223 105.5862
700000000 -49.498138 65.547974 -1.1117216 -6.0729456 -1.1199287 -6.0704288 -50.29958 102.67364
710000000 -49.546753 62.858368 -1.1128827 -6.1432829 -1.1204265 -6.1403699 -50.883511 100.03989
720000000 -49.728416 60.486805 -1.1145244 -6.2215476 -1.1217773 -6.2227063 -51.250626 97.404037
730000000 -49.931702 55.941612 -1.1155636 -6.2851138 -1.1221697 -6.2975993 -51.569344 93.775536
740000000 -49.59478 50.735554 -1.1167436 -6.358252 -1.1252066 -6.3732367 -51.818375 90.563675
750000000 -49.386406 46.599072 -1.1180285 -6.4310923 -1.1258668 -6.4388418 -51.866066 84.167824
760000000 -49.108749 43.356022 -1.120398 -6.4971099 -1.1273662 -6.5210872 -52.125183 77.722664
770000000 -49.201073 38.26614 -1.1219566 -6.5712357 -1.1294577 -6.5968876 -52.16967 67.629555
780000000 -50.053001 36.36425 -1.1215246 -6.6417108 -1.1311425 -6.672245 -53.56435 61.742985
790000000 -50.494019 32.454514 -1.1200914 -6.7253399 -1.1319031 -6.7443628 -54.518589 60.996765
800000000 -50.405251 25.957993 -1.123157 -6.815753 -1.13195 -6.8121262 -55.049797 60.579563
810000000 -50.124756 20.850227 -1.1240506 -6.8923359 -1.1324909 -6.8868985 -55.742413 58.252171
820000000 -49.992577 17.83758 -1.1266125 -6.9603782 -1.1342256 -6.9657545 -56.381016 56.889408
830000000 -49.344898 16.473688 -1.1270807 -7.0312119 -1.1352879 -7.035831 -56.222057 57.298977
840000000 -48.684025 15.878016 -1.1284164 -7.103272 -1.1363227 -7.1050668 -56.45356 54.798454
850000000 -48.066807 13.193172 -1.1289736 -7.1709123 -1.1370196 -7.1833448 -55.224125 48.921207
860000000 -47.768677 11.73512 -1.1304715 -7.2400064 -1.1380301 -7.252079 -54.616112 41.844463
870000000 -47.501686 11.618047 -1.1318254 -7.3102775 -1.1394799 -7.3250875 -54.142139 35.390125
880000000 -47.444706 11.211181 -1.1328545 -7.3784904 -1.1418449 -7.4063158 -53.962582 30.970837
890000000 -47.915474 9.3455648 -1.1335161 -7.4535236 -1.1416968 -7.4769764 -53.192093 25.973082
900000000 -47.948853 6.0203271 -1.1323777 -7.5297194 -1.1438421 -7.5449882 -53.443436 24.071615
910000000 -47.984203 2.2289646 -1.1337245 -7.6123066 -1.1443683 -7.6151819 -53.342468 17.766476
920000000 -47.717979 -1.752423 -1.1356843 -7.6840596 -1.145501 -7.69245 -53.245659 12.953548
930000000 -47.347782 -4.3771224 -1.1376892 -7.7644515 -1.1458502 -7.76296 -53.672821 8.9911842
940000000 -46.870811 -6.9846659 -1.1390448 -7.8288884 -1.1461077 -7.8380828 -53.094543 8.3826056
950000000 -46.323437 -8.0965757 -1.1405014 -7.8989749 -1.1480615 -7.9108329 -52.919479 4.9564848
960000000 -45.483196 -8.6492634 -1.1419318 -7.9709563 -1.1502414 -7.9845901 -52.737717 2.934339
970000000 -44.896564 -9.4318333 -1.1438344 -8.0294962 -1.1498662 -8.0539598 -52.081867 -2.7456293
980000000 -44.63401 -9.1450787 -1.1433351 -8.1015987 -1.1514223 -8.1270437 -52.207184 -5.1221328
990000000 -44.681484 -9.4345331 -1.1440027 -8.1750565 -1.152373 -8.1931419 -51.731285 -5.5910406
1000000000 -44.746647 -11.206465 -1.1431785 -8.248641 -1.1532847 -8.263689 -51.507408 -5.0313597
1010000000 -44.998474 -12.249229 -1.143291 -8.328537 -1.1541109 -8.3354998 -51.388012 -5.0104275
1020000000 -45.166946 -14.36824 -1.1441135 -8.4048882 -1.1538296 -8.4101505 -51.035248 -6.2196403
1030000000 -45.029331 -15.359356 -1.146443 -8.4785109 -1.1540177 -8.478363 -51.008575 -7.8069935
1040000000 -44.792336 -16.186632 -1.1477365 -8.5460987 -1.1550287 -8.5495195 -50.736679 -6.9569969
1050000000 -44.556042 -17.132643 -1.1487502 -8.6199598 -1.1570626 -8.6236906 -50.204845 -7.7067204
1060000000 -44.312794 -18.468298 -1.1495802 -8.6916294 -1.1573867 -8.6944256 -49.518963 -9.6336069
1070000000 -43.821442 -18.63603 -1.1512208 -8.7584467 -1.1581657 -8.7711887 -49.208313 -12.612288
1080000000 -43.376263 -19.633671 -1.1522042 -8.8283367 -1.15942 -8.8432302 -48.988224 -14.826522
1090000000 -42.927109 -19.655058 -1.1532375 -8.8982983 -1.1610303 -8.9174929 -48.850876 -16.104841
1100000000 -42.510159 -19.369789 -1.1536068 -8.972003 -1.1625575 -8.9903231 -48.664944 -16.351645
1110000000 -42.344265 -20.095951 -1.1539009 -9.0449839 -1.1633403 -9.0609531 -48.617992 -18.740452
1120000000 -42.227802 -20.916431 -1.1535821 -9.1198244 -1.1626059 -9.1206217 -48.234993 -20.272665
1130000000 -42.122208 -21.803503 -1.1548885 -9.1914749 -1.1627235 -9.2023897 -48.34816 -22.322821
1140000000 -42.11874 -22.462969 -1.1561934 -9.261961 -1.1639217 -9.2704573 -48.211636 -21.747669
1150000000 -42.037804 -23.687729 -1.1572093 -9.3304558 -1.1646278 -9.3422127 -47.89389 -22.334776
1160000000 -41.904636 -24.034695 -1.1578469 -9.4044275 -1.1661041 -9.4138937 -47.677307 -24.254175
1170000000 -41.742962 -25.507565 -1.158825 -9.4731674 -1.1670723 -9.4815035 -47.20528 -25.120222
1180000000 -41.475201 -26.643948 -1.1601226 -9.5413904 -1.1676944 -9.549839 -47.025463 -26.67816
1190000000 -41.385757 -27.155945 -1.1617842 -9.6134748 -1.168726 -9.6217041 -46.640381 -28.170654
1200000000 -41.128979 -28.210077 -1.162864 -9.6837816 -1.1696641 -9.6985245 -46.450642 -29.503958
1210000000 -41.046333 -28.612036 -1.1630386 -9.7587194 -1.1710788 -9.7703753 -46.322567 -31.444828
1220000000 -40.797806 -28.835503 -1.1628938 -9.8278074 -1.1720505 -9.8412466 -46.287304 -33.24902
1230000000 -40.701653 -29.574148 -1.1637444 -9.9044466 -1.1728568 -9.9098892 -46.479511 -35.672745
1240000000 -40.564411 -29.728409 -1.1646687 -9.975647 -1.1737695 -9.9808283 -46.318775 -34.793674
1250000000 -40.370449 -29.579296 -1.1654615 -10.04425 -1.1736341 -10.051911 -46.253136 -35.596554
1260000000 -40.194767 -29.00692 -1.1668724 -10.112032 -1.1745341 -10.117862 -46.084866 -35.436008
1270000000 -40.101173 -28.600327 -1.167058 -10.179758 -1.1757334 -10.18988 -45.874111 -36.282322
1280000000 -39.972397 -28.197289 -1.1681795 -10.248987 -1.1766844 -10.256742 -45.742676 -35.779167
1290000000 -39.896694 -28.355186 -1.1699742 -10.314783 -1.1775795 -10.328146 -45.429581 -35.02
1300000000 -39.933472 -29.242701 -1.1701756 -10.388552 -1.1790308 -10.396993 -44.991268 -35.470352
1310000000 -39.832077 -30.638269 -1.1709266 -10.458196 -1.178975 -10.469851 -44.926537 -37.250484
1320000000 -39.832012 -31.396999 -1.1713765 -10.529174 -1.1803408 -10.541121 -44.67572 -37.48764
1330000000 -39.653866 -32.342899 -1.1722057 -10.603668 -1.1816961 -10.614304 -44.686943 -39.979435
1340000000 -39.469444 -32.776031 -1.1732864 -10.674063 -1.1822109 -10.682934 -44.536911 -38.862576
1350000000 -39.248466 -32.991192 -1.1744692 -10.746618 -1.1836796 -10.755308 -44.344368 -40.88451
1360000000 -39.01265 -32.793743 -1.1758529 -10.815643 -1.1848785 -10.823578 -44.301373 -41.305233
1370000000 -38.830605 -32.135002 -1.1778311 -10.885775 -1.1858178 -10.893317 -44.234699 -41.225964
1380000000 -38.580151 -31.628113 -1.1783071 -10.951101 -1.1864009 -10.955974 -44.128403 -41.212597
1390000000 -38.397556 -31.611971 -1.1793367 -11.019252 -1.1872888 -11.024771 -44.048794 -41.898407
1400000000 -38.363522 -31.195854 -1.1795049 -11.087466 -1.1885564 -11.090681 -43.765621 -42.861404
1410000000 -38.513237 -31.533306 -1.1808378 -11.156757 -1.1879255 -11.161522 -43.625454 -43.319851
1420000000 -38.561737 -32.023327 -1.1816165 -11.22162 -1.1900355 -11.235638 -43.445503 -43.981655
1430000000 -38.645336 -33.237476 -1.1805826 -11.297529 -1.190331 -11.307431 -43.409828 -43.995522
1440000000 -38.674389 -33.813427 -1.1821113 -11.364963 -1.1908264 -11.378687 -43.310688 -45.047729
1450000000 -38.493523 -34.544018 -1.1824667 -11.433068 -1.1919861 -11.445161 -43.177193 -44.220798
1460000000 -38.362152 -34.047661 -1.1842736 -11.506418 -1.1919595 -11.511868 -42.941669 -43.581421
1470000000 -38.185047 -33.893955 -1.1853002 -11.568265 -1.1932809 -11.582576 -42.873882 -43.952488
1480000000 -37.900803 -33.681629 -1.1861866 -11.636954 -1.1950506 -11.645838 -42.629696 -42.55867
1490000000 -37.706581 -33.275002 -1.1870557 -11.701861 -1.1955882 -11.713737 -42.312061 -42.761471
1500000000 -37.556236 -33.398148 -1.1885087 -11.77311 -1.1967921 -11.776649 -42.099045 -42.947929
1510000000 -37.447601 -32.927769 -1.1892368 -11.840278 -1.1975921 -11.849447 -41.998577 -44.191166
1520000000 -37.448437 -33.089066 -1.1896862 -11.911939 -1.1979127 -11.920553 -41.821049 -44.723389
1530000000 -37.413261 -33.645512 -1.1897964 -11.9792 -1.1982204 -11.991446 -41.788757 -46.143559
1540000000 -37.440403 -34.350506 -1.1907686 -12.054044 -1.1987778 -12.060083 -41.622185 -46.660709
1550000000 -37.398304 -34.561447 -1.1913536 -12.121682 -1.1993284 -12.129723 -41.526711 -46.781139
1560000000 -37.368244 -35.345531 -1.192464 -12.191704 -1.2002603 -12.198026 -41.373253 -47.128895
1570000000 -37.300949 -35.674084 -1.1931334 -12.257119 -1.2014157 -12.269694 -41.308479 -47.331032
1580000000 -37.113457 -35.454144 -1.1943724 -12.32574 -1.2035716 -12.332224 -41.169197 -47.393764
1590000000 -37.023651 -36.032524 -1.195503 -12.38869 -1.2030203 -12.402446 -40.9118 -46.514858
1600000000 -36.90189 -35.927666 -1.1960924 -12.456711 -1.203969 -12.468907 -40.702618 -46.77335
1610000000 -36.75819 -35.821117 -1.1967617 -12.523462 -1.2051837 -12.532949 -40.493458 -46.412647
1620000000 -36.68008 -35.96233 -1.1969179 -12.589404 -1.2056116 -12.599454 -40.405239 -46.766529
1630000000 -36.648544 -36.501244 -1.1976985 -12.659366 -1.2056912 -12.668043 -40.392429 -46.644897
1640000000 -36.56987 -36.499962 -1.1980754 -12.736243 -1.2070311 -12.738378 -40.423035 -47.272343
1650000000 -36.523354 -36.513504 -1.1998324 -12.803218 -1.2079613 -12.807429 -40.384079 -47.987564
1660000000 -36.453449 -36.606037 -1.2000576 -12.868713 -1.2088352 -12.869288 -40.264217 -48.704807
1670000000 -36.399891 -36.855774 -1.2016789 -12.929989 -1.2092514 -12.940274 -40.264057 -48.729912
1680000000 -36.396027 -37.282333 -1.2023958 -13.003385 -1.210887 -13.006879 -40.158089 -49.318657
1690000000 -36.309956 -37.415623 -1.2026057 -13.06854 -1.2120191 -13.074846 -39.958855 -49.43771
1700000000 -36.209778 -37.419121 -1.2039558 -13.136989 -1.2135359 -13.137237 -39.777431 -49.756557
1710000000 -36.21336 -37.590488 -1.2054889 -13.202287 -1.2135417 -13.212458 -39.6782 -49.45705
1720000000 -36.188301 -38.258743 -1.2055391 -13.268942 -1.2144524 -13.276177 -39.569321 -49.132988
1730000000 -36.12373 -38.54707 -1.2065974 -13.336624 -1.2147349 -13.348722 -39.454182 -48.960655
1740000000 -36.096558 -38.797672 -1.2065191 -13.408315 -1.2149096 -13.417963 -39.368069 -48.935085
1750000000 -35.987774 -39.305443 -1.2073784 -13.476197 -1.2154465 -13.484318 -39.292465 -49.099663
1760000000 -35.876232 -39.305557 -1.2082851 -13.542276 -1.2153968 -13.547703 -39.176624 -48.613678
1770000000 -35.812675 -39.301529 -1.2087268 -13.60707 -1.2178837 -13.611229 -39.1707 -49.145531
1780000000 -35.643105 -39.059795 -1.2093556 -13.668208 -1.2182031 -13.675239 -39.1106 -48.8526
1790000000 -35.540005 -38.839405 -1.2108257 -13.733494 -1.2193073 -13.74424 -39.020737 -49.021149
1800000000 -35.515377 -38.738766 -1.2115774 -13.799739 -1.2212845 -13.804876 -38.934612 -49.406929
1810000000 -35.482574 -38.881126 -1.2119418 -13.867084 -1.2225782 -13.874749 -38.817963 -49.24464
1820000000 -35.475807 -39.411514 -1.2134877 -13.938201 -1.2226598 -13.940179 -38.777805 -50.057827
1830000000 -35.468121 -40.142998 -1.2140023 -14.003256 -1.2221179 -14.012221 -38.731873 -50.2244
1840000000 -35.485676 -40.619717 -1.214311 -14.073521 -1.2234592 -14.079024 -38.731667 -50.900635
1850000000 -35.444748 -41.167484 -1.2146903 -14.13879 -1.2244045 -14.151217 -38.653358 -50.787647
1860000000 -35.384502 -41.550907 -1.2154232 -14.208282 -1.2249869 -14.212827 -38.549267 -50.64513
1870000000 -35.268318 -41.396679 -1.2155218 -14.270887 -1.2264942 -14.281374 -38.477749 -50.235023
1880000000 -35.20525 -41.023174 -1.2173928 -14.343336 -1.2265402 -14.347504 -38.395424 -49.546516
1890000000 -35.099369 -41.126389 -1.2169337 -14.402011 -1.2266827 -14.410103 -38.240482 -49.092628
1900000000 -34.963112 -40.261364 -1.218601 -14.467091 -1.2267458 -14.468923 -38.119141 -48.711102
1910000000 -34.824856 -40.070419 -1.219172 -14.527864 -1.2286512 -14.53259 -38.069603 -48.073544
1920000000 -34.768574 -39.8008 -1.2200358 -14.588369 -1.2297571 -14.604377 -38.037571 -48.269421
1930000000 -34.751957 -40.266479 -1.2204139 -14.661057 -1.2307206 -14.665628 -37.9855 -48.632565
1940000000 -34.800251 -40.850826 -1.2209958 -14.728707 -1.2301275 -14.735445 -37.979733 -49.233112
1950000000 -34.81546 -41.215244 -1.2217873 -14.794176 -1.2314664 -14.801501 -37.910641 -49.53738
1960000000 -34.808006 -41.805984 -1.2228661 -14.864351 -1.2317129 -14.872799 -37.820156 -50.169029
1970000000 -34.801411 -42.538216 -1.2237302 -14.930187 -1.2324141 -14.940739 -37.812897 -50.962715
1980000000 -34.727337 -42.913071 -1.2244642 -14.994825 -1.2338027 -15.007246 -37.742424 -50.224434
1990000000 -34.603054 -42.854221 -1.2256517 -15.059562 -1.2341249 -15.069894 -37.666855 -50.953571
2000000000 -34.45966 -42.77124 -1.2260287 -15.124131 -1.2352704 -15.128335 -37.583275 -50.085075
2010000000 -34.392563 -42.528149 -1.226396 -15.189959 -1.2350712 -15.196946 -37.516899 -49.264805
2020000000 -34.29097 -41.961163 -1.2266082 -15.246869 -1.2373687 -15.255371 -37.425331 -49.384892
2030000000 -34.241829 -41.793346 -1.2272125 -15.309728 -1.236806 -15.316537 -37.359207 -48.872559
2040000000 -34.235683 -42.285778 -1.2266827 -15.381595 -1.2380228 -15.384925 -37.304649 -49.574738
2050000000 -34.270111 -42.50275 -1.2280917 -15.450359 -1.2375253 -15.451116 -37.273357 -49.896236
2060000000 -34.333698 -43.195782 -1.2289555 -15.513409 -1.237748 -15.521969 -37.316448 -49.99295
2070000000 -34.301823 -43.869781 -1.2289016 -15.58126 -1.2389995 -15.590559 -37.284187 -50.9165
2080000000 -34.332592 -44.171177 -1.2288938 -15.655191 -1.2391968 -15.652467 -37.301483 -50.885258
2090000000 -34.322037 -44.446117 -1.2308742 -15.716024 -1.2406619 -15.719744 -37.312298 -51.801792
2100000000 -34.206234 -44.446018 -1.2325121 -15.779909 -1.2416192 -15.782537 -37.267609 -51.494995
2110000000 -34.093983 -44.782974 -1.2330571 -15.841191 -1.2417698 -15.846054 -37.260838 -51.616467
2120000000 -34.019543 -44.845051 -1.233552 -15.901095 -1.242951 -15.911623 -37.154263 -51.782131
2130000000 -34.000225 -44.350128 -1.2329898 -15.968955 -1.2430795 -15.976718 -36.965942 -51.495773
2140000000 -33.994717 -44.442734 -1.2328426 -16.030947 -1.2434777 -16.043964 -36.930897 -51.762779
2150000000 -33.993439 -44.454826 -1.2339475 -16.098257 -1.2422745 -16.105345 -36.898361 -51.246998
2160000000 -33.961845 -44.343399 -1.2336076 -16.165882 -1.243064 -16.17374 -36.916294 -50.879593
2170000000 -33.95385 -44.612793 -1.2340937 -16.233074 -1.2435718 -16.237444 -36.959419 -50.909546
2180000000 -33.917858 -44.637314 -1.2347963 -16.294285 -1.2438172 -16.30694 -36.88332 -50.771454
2190000000 -33.884052 -44.685345 -1.2353244 -16.360001 -1.2449927 -16.367367 -36.927753 -51.270947
2200000000 -33.86282 -44.493183 -1.2361485 -16.420813 -1.2456003 -16.430443 -36.871895 -51.336723
2210000000 -33.838291 -44.566002 -1.2366116 -16.481846 -1.2458749 -16.485056 -36.735252 -51.763424
2220000000 -33.823948 -44.842567 -1.2372631 -16.545864 -1.247494 -16.551199 -36.715324 -52.324131
2230000000 -33.818981 -45.411724 -1.2378359 -16.610353 -1.2469202 -16.617996 -36.6474 -52.930679
2240000000 -33.827591 -46.060654 -1.2383519 -16.677584 -1.2476803 -16.6877 -36.619041 -52.921921
2250000000 -33.78257 -46.220528 -1.2374772 -16.74671 -1.2476168 -16.750954 -36.623268 -53.415504
2260000000 -33.767136 -46.344296 -1.2390691 -16.809216 -1.2485087 -16.818237 -36.574059 -52.925308
2270000000 -33.741108 -46.264374 -1.2389827 -16.880892 -1.2488183 -16.879631 -36.55851 -52.795654
2280000000 -33.704906 -45.966305 -1.24016 -16.937881 -1.2479594 -16.946974 -36.548832 -52.019482
2290000000 -33.671677 -45.660652 -1.2405372 -17.000023 -1.2491637 -17.011019 -36.575787 -52.171078
2300000000 -33.625443 -45.295582 -1.2403246 -17.061441 -1.249707 -17.073307 -36.474648 -51.88303
2310000000 -33.568298 -45.19482 -1.2406181 -17.121284 -1.2500728 -17.135324 -36.419834 -51.766891
2320000000 -33.555386 -44.92643 -1.2402951 -17.187735 -1.2502838 -17.200205 -36.416275 -51.91325
2330000000 -33.57016 -44.995995 -1.2407238 -17.253412 -1.2506211 -17.256708 -36.318245 -51.478687
2340000000 -33.556583 -45.281513 -1.241572 -17.314089 -1.2516894 -17.324827 -36.328735 -52.245392
2350000000 -33.581047 -45.573013 -1.2416974 -17.382412 -1.2522099 -17.385504 -36.279179 -52.282463
2360000000 -33.564434 -46.245445 -1.2427666 -17.450487 -1.2529221 -17.4585 -36.33313 -53.142097
2370000000 -33.592499 -46.610352 -1.2430103 -17.517605 -1.2534748 -17.520901 -36.344391 -53.375347
2380000000 -33.53532 -46.905842 -1.2442181 -17.583858 -1.2530744 -17.586708 -36.263866 -53.602966
2390000000 -33.517208 -47.280571 -1.2447304 -17.650146 -1.2535992 -17.653904 -36.251629 -54.582745
2400000000 -33.462776 -46.886314 -1.2443588 -17.709057 -1.2538476 -17.718344 -36.213165 -53.981968
2410000000 -33.438568 -47.170616 -1.2447538 -17.775866 -1.2537639 -17.783873 -36.176582 -54.406666
2420000000 -33.391354 -46.520191 -1.2446263 -17.834684 -1.2537885 -17.840555 -36.082752 -53.904255
2430000000 -33.368908 -46.168755 -1.2448539 -17.894354 -1.2546741 -17.907078 -36.090782 -53.392292
2440000000 -33.335262 -45.823441 -1.2442415 -17.957701 -1.2546122 -17.962671 -35.971897 -53.361805
2450000000 -33.381348 -45.83876 -1.2452914 -18.013914 -1.2552311 -18.028822 -35.983082 -53.296467
2460000000 -33.445412 -45.691925 -1.2453635 -18.084082 -1.2557175 -18.085588 -36.009212 -52.927868
2470000000 -33.52663 -46.132469 -1.2458915 -18.149836 -1.2556231 -18.158278 -35.995876 -53.460094
2480000000 -33.585579 -46.743893 -1.246636 -18.217733 -1.2553598 -18.21966 -35.964981 -53.834988
2490000000 -33.65477 -47.114124 -1.2478317 -18.279821 -1.2558426 -18.28956 -35.962067 -54.378841
2500000000 -33.602333 -47.642445 -1.2472218 -18.348289 -1.2567947 -18.352957 -35.909275 -54.410625
2510000000 -33.616547 -47.909996 -1.2480029 -18.413755 -1.2567763 -18.418127 -35.939804 -55.070095
2520000000 -33.536575 -47.97591 -1.2487413 -18.478077 -1.2585306 -18.487074 -35.854671 -54.997604
2530000000 -33.484985 -47.838253 -1.2483341 -18.537848 -1.257322 -18.543375 -35.797779 -54.225243
2540000000 -33.446552 -48.020969 -1.2487941 -18.599941 -1.2581692 -18.610144 -35.7304 -54.767529
2550000000 -33.420406 -47.394257 -1.2489877 -18.66258 -1.257668 -18.670887 -35.71701 -54.194798
2560000000 -33.448601 -47.271542 -1.2479805 -18.728395 -1.258147 -18.733047 -35.741947 -54.541733
2570000000 -33.437855 -47.247696 -1.2488241 -18.784796 -1.2573897 -18.795513 -35.67672 -54.095631
2580000000 -33.51305 -47.294258 -1.2488152 -18.856915 -1.257628 -18.856886 -35.701462 -53.604813
2590000000 -33.551464 -47.439209 -1.2498403 -18.915478 -1.2581643 -18.922077 -35.725945 -54.125431
2600000000 -33.595001 -47.700871 -1.2489177 -18.982698 -1.2583224 -18.987516 -35.755272 -54.071808
2610000000 -33.621216 -47.811474 -1.2496169 -19.049896 -1.2592487 -19.054026 -35.758564 -55.167725
2620000000 -33.603104 -48.082073 -1.2496438 -19.110487 -1.2587773 -19.119698 -35.72884 -54.699036
2630000000 -33.611012 -48.080444 -1.2516549 -19.174606 -1.2595949 -19.181257 -35.766502 -54.510334
2640000000 -33.539352 -48.691357 -1.2503439 -19.238701 -1.2602385 -19.245726 -35.722305 -55.17297
2650000000 -33.521259 -48.584118 -1.2499566 -19.302496 -1.2602257 -19.310856 -35.635792 -54.831486
2660000000 -33.514706 -48.581779 -1.2508835 -19.369787 -1.2606243 -19.377483 -35.668003 -55.809242
2670000000 -33.46257 -48.726688 -1.2501833 -19.432827 -1.2596542 -19.442884 -35.575485 -55.23597
2680000000 -33.426979 -48.655895 -1.2513078 -19.49991 -1.2598943 -19.508751 -35.602119 -55.255787
2690000000 -33.453541 -48.756504 -1.2504992 -19.565704 -1.2599787 -19.574266 -35.603943 -55.13121
2700000000 -33.478977 -48.507961 -1.2509091 -19.628008 -1.2594739 -19.637741 -35.577198 -54.940918
2710000000 -33.517265 -48.47258 -1.2513741 -19.697718 -1.2606236 -19.696503 -35.603523 -54.947765
2720000000 -33.524361 -48.063602 -1.2506415 -19.749989 -1.2602859 -19.763786 -35.576683 -54.212452
2730000000 -33.54126 -48.177052 -1.2509222 -19.814369 -1.2601327 -19.824703 -35.526936 -54.335999
2740000000 -33.549484 -48.257797 -1.2508293 -19.877176 -1.2611549 -19.888781 -35.514446 -54.450245
2750000000 -33.576885 -48.560974 -1.2514874 -19.940472 -1.2608618 -19.947647 -35.486095 -54.296268
2760000000 -33.569141 -48.858124 -1.2524488 -20.007671 -1.2604482 -20.01852 -35.494633 -54.67831
2770000000 -33.571949 -48.864971 -1.25183 -20.073437 -1.2611151 -20.08185 -35.4636 -53.953583
2780000000 -33.567413 -48.947819 -1.2534683 -20.143108 -1.2611451 -20.151878 -35.447891 -54.421211
2790000000 -33.51754 -49.067154 -1.2525707 -20.204964 -1.2618523 -20.217064 -35.428822 -54.31855
2800000000 -33.480824 -49.403942 -1.25159 -20.273125 -1.2614822 -20.280489 -35.375065 -54.528351
2810000000 -33.511456 -49.265121 -1.2528536 -20.335581 -1.2627527 -20.344051 -35.438339 -54.322182
2820000000 -33.423603 -49.173569 -1.2517271 -20.401056 -1.2618492 -20.399538 -35.299393 -53.653942
2830000000 -33.43961 -48.932545 -1.2530329 -20.45517 -1.2624608 -20.469664 -35.406223 -54.094566
2840000000 -33.399719 -48.395966 -1.2517868 -20.518368 -1.261674 -20.520126 -35.347023 -53.027996
2850000000 -33.427105 -48.507965 -1.2519205 -20.585506 -1.2621725 -20.588654 -35.399475 -53.421474
2860000000 -33.498726 -48.649288 -1.2517581 -20.651707 -1.262645 -20.656197 -35.432438 -53.79266
2870000000 -33.521954 -48.739658 -1.251552 -20.718769 -1.2617865 -20.719477 -35.369656 -53.402512
2880000000 -33.552288 -48.979046 -1.2518362 -20.77799 -1.2624252 -20.789173 -35.365223 -53.958275
2890000000 -33.557575 -49.151543 -1.2515959 -20.847946 -1.2629763 -20.84897 -35.37109 -53.288795
2900000000 -33.582703 -49.324722 -1.2527373 -20.913134 -1.2626907 -20.915052 -35.450813 -53.51606
2910000000 -33.587421 -49.385677 -1.2528844 -20.982605 -1.2632903 -20.980764 -35.518738 -53.316425
2920000000 -33.493374 -49.248184 -1.2522669 -21.042816 -1.2630663 -21.045357 -35.456627 -52.817806
2930000000 -33.430351 -48.965271 -1.2537615 -21.10041 -1.2626283 -21.109911 -35.523411 -53.026604
2940000000 -33.405373 -49.041306 -1.252758 -21.164873 -1.2626758 -21.170286 -35.467876 -52.957729
2950000000 -33.431549 -48.940613 -1.2531632 -21.225155 -1.2625525 -21.231853 -35.43935 -53.19318
2960000000 -33.377674 -48.705635 -1.2520403 -21.286707 -1.2625781 -21.296923 -35.331196 -53.319691
2970000000 -33.354408 -48.721745 -1.2522647 -21.350521 -1.261377 -21.360296 -35.328743 -52.832832
2980000000 -33.463242 -48.862274 -1.2521715 -21.419743 -1.2635179 -21.419046 -35.39473 -52.972527
2990000000 -33.507172 -48.829979 -1.251947 -21.482992 -1.2624203 -21.488298 -35.431557 -52.896198
3000000000 -33.568417 -48.952885 -1.2535058 -21.549608 -1.2630116 -21.55759 -35.487946 -53.268425
3010000000 -33.596249 -49.189335 -1.2527859 -21.61532 -1.2635466 -21.620674 -35.457474 -53.28944
3020000000 -33.594269 -49.3498 -1.2529783 -21.678034 -1.2627983 -21.68474 -35.45417 -53.405113
3030000000 -33.538502 -48.993889 -1.2535926 -21.739349 -1.2633655 -21.745167 -35.315311 -52.882233
3040000000 -33.548164 -49.236626 -1.2531925 -21.803045 -1.2637298 -21.808552 -35.315224 -53.117489
3050000000 -33.453312 -48.984646 -1.2522123 -21.867468 -1.2632533 -21.871805 -35.217182 -52.505699
3060000000 -33.408779 -48.792767 -1.2522019 -21.930731 -1.2633437 -21.934286 -35.254398 -52.282532
3070000000 -33.46471 -48.887196 -1.2525922 -21.994823 -1.2629943 -22.000656 -35.234634 -52.012493
3080000000 -33.477951 -48.39912 -1.2528063 -22.058941 -1.2626145 -22.067022 -35.199097 -51.506794
3090000000 -33.528927 -48.635502 -1.253329 -22.123352 -1.2629188 -22.128633 -35.272652 -52.141006
3100000000 -33.533871 -48.62413 -1.253176 -22.188513 -1.2619259 -22.190321 -35.265594 -51.389328
3110000000 -33.617218 -48.865555 -1.2541177 -22.25701 -1.2626619 -22.256296 -35.404057 -51.90416
3120000000 -33.604656 -48.857841 -1.2536727 -22.314734 -1.2620977 -22.322298 -35.385334 -51.52327
3130000000 -33.620098 -48.995014 -1.2533349 -22.37801 -1.262729 -22.384378 -35.358738 -51.742268
3140000000 -33.665379 -48.95649 -1.2531106 -22.447647 -1.2636453 -22.451756 -35.432766 -52.572826
3150000000 -33.668404 -49.299278 -1.2535245 -22.507252 -1.2628396 -22.513626 -35.324261 -52.574276
3160000000 -33.659027 -49.325413 -1.253376 -22.569019 -1.2634302 -22.579952 -35.326881 -52.823967
3170000000 -33.557407 -49.277496 -1.251946 -22.633045 -1.2621856 -22.640745 -35.112495 -52.089081
3180000000 -33.571995 -49.080036 -1.2523594 -22.697483 -1.263658 -22.703579 -35.203163 -52.174431
3190000000 -33.512749 -49.074265 -1.2522019 -22.763647 -1.2631584 -22.770195 -35.205006 -51.758408
3200000000 -33.489517 -48.881157 -1.2526945 -22.826796 -1.2619603 -22.831816 -35.139065 -51.24979
3210000000 -33.485664 -48.583729 -1.2523077 -22.887465 -1.2623739 -22.894424 -35.120895 -51.116714
3220000000 -33.531055 -48.517448 -1.2524302 -22.956785 -1.2621261 -22.958115 -35.245247 -51.066101
3230000000 -33.549789 -48.47419 -1.2524875 -23.01845 -1.2616332 -23.024734 -35.167774 -50.998817
3240000000 -33.531246 -48.646183 -1.2524464 -23.084623 -1.2615221 -23.08604 -35.194824 -51.434006
3250000000 -33.521297 -48.654156 -1.2521861 -23.145432 -1.2620035 -23.153774 -35.208084 -51.644306
3260000000 -33.554974 -48.467796 -1.2525079 -23.209209 -1.2628032 -23.212584 -35.186314 -51.44696
3270000000 -33.62941 -48.580143 -1.2533311 -23.278584 -1.2630908 -23.276951 -35.24992 -51.737225
3280000000 -33.670753 -48.963039 -1.2524385 -23.340216 -1.2620357 -23.344889 -35.205547 -52.32869
3290000000 -33.710567 -48.907135 -1.2514191 -23.405451 -1.2631913 -23.41094 -35.208344 -52.65152
3300000000 -33.706326 -48.832829 -1.2514362 -23.470131 -1.2620817 -23.47489 -35.170044 -52.538643
3310000000 -33.699284 -49.158928 -1.2520199 -23.535824 -1.2617183 -23.539396 -35.116718 -52.687054
3320000000 -33.678055 -48.835209 -1.2518473 -23.600481 -1.2623912 -23.601753 -35.072742 -51.851746
3330000000 -33.672398 -48.563778 -1.2514981 -23.660046 -1.2621901 -23.666452 -35.089367 -51.632141
3340000000 -33.641792 -48.723602 -1.2514038 -23.723553 -1.261547 -23.732918 -35.00005 -51.316158
3350000000 -33.655849 -48.67955 -1.2516549 -23.788328 -1.2614632 -23.791336 -34.987553 -51.271164
3360000000 -33.687046 -48.348911 -1.2517071 -23.848566 -1.2613102 -23.852114 -34.963383 -50.439903
3370000000 -33.715763 -48.597065 -1.2511811 -23.917788 -1.2610894 -23.92087 -34.975098 -50.991821
3380000000 -33.750019 -48.777443 -1.2517868 -23.979609 -1.2607132 -23.985195 -34.969776 -50.981911
3390000000 -33.742249 -48.805397 -1.251331 -24.043879 -1.2600188 -24.048443 -34.975548 -50.990974
3400000000 -33.841953 -48.80706 -1.251286 -24.115931 -1.2614286 -24.112764 -35.059677 -51.587769
3410000000 -33.825943 -49.277866 -1.2493659 -24.177095 -1.2600458 -24.18173 -34.961071 -51.598637
3420000000 -33.859211 -49.125145 -1.2510803 -24.242439 -1.2604077 -24.247578 -35.007751 -52.356087
3430000000 -33.816406 -49.382454 -1.2490243 -24.306698 -1.2596583 -24.312691 -34.898937 -52.325878
3440000000 -33.780781 -49.466721 -1.249705 -24.373745 -1.2596095 -24.37455 -34.860844 -52.234032
3450000000 -33.761379 -49.295528 -1.2502807 -24.437489 -1.2601572 -24.440525 -34.867783 -52.075253
3460000000 -33.681522 -48.991505 -1.2493798 -24.497276 -1.2593477 -24.501823 -34.717197 -51.1418
3470000000 -33.690052 -48.886856 -1.2507602 -24.562246 -1.2592286 -24.567701 -34.784599 -51.393112
3480000000 -33.641052 -48.749737 -1.2492807 -24.622534 -1.2589308 -24.62924 -34.660965 -50.825882
3490000000 -33.705261 -48.623566 -1.2490554 -24.689415 -1.2596067 -24.689964 -34.728153 -50.895294
3500000000 -33.742851 -48.985462 -1.248606 -24.753075 -1.2589453 -24.753208 -34.712997 -50.886715
3510000000 -33.78426 -49.076107 -1.2487251 -24.81739 -1.2593597 -24.820683 -34.733521 -50.655746
3520000000 -33.896187 -49.252087 -1.2482872 -24.885744 -1.2595507 -24.886755 -34.767517 -51.166344
3530000000 -33.940369 -49.592453 -1.2487475 -24.949753 -1.2588408 -24.951387 -34.772114 -51.482319
3540000000 -34.023071 -49.441967 -1.2494743 -25.014301 -1.2591674 -25.019932 -34.868507 -51.950748
3550000000 -34.077705 -49.594662 -1.2487924 -25.077049 -1.2582861 -25.084787 -34.810349 -52.12553
3560000000 -34.069885 -49.702065 -1.2486453 -25.140263 -1.2582456 -25.150509 -34.779743 -51.923183
3570000000 -34.110069 -49.642822 -1.248978 -25.206964 -1.2583107 -25.21134 -34.791405 -52.142841
3580000000 -34.060505 -49.544552 -1.2475971 -25.269897 -1.2582909 -25.277872 -34.691269 -51.718498
3590000000 -34.048817 -49.513321 -1.2479515 -25.333191 -1.2582372 -25.340586 -34.70715 -51.371593
3600000000 -34.041161 -49.258694 -1.2480029 -25.397406 -1.2576989 -25.400505 -34.637825 -50.794262
3610000000 -34.01297 -49.228676 -1.2476878 -25.458801 -1.2569416 -25.464756 -34.633598 -50.182087
3620000000 -34.016846 -49.295353 -1.2480353 -25.527079 -1.2565527 -25.526031 -34.655418 -50.116421
3630000000 -34.058941 -49.145245 -1.2468796 -25.589264 -1.25646 -25.596113 -34.65937 -50.09016
3640000000 -34.071075 -49.399807 -1.2467291 -25.654303 -1.2567369 -25.658733 -34.696495 -50.2649
3650000000 -34.159039 -49.767651 -1.2473639 -25.717976 -1.256723 -25.725815 -34.766041 -50.42054
3660000000 -34.190315 -49.857162 -1.2458463 -25.782671 -1.2571871 -25.791475 -34.750122 -50.748917
3670000000 -34.270412 -50.278812 -1.2465754 -25.8479 -1.2567507 -25.858805 -34.802567 -51.496098
3680000000 -34.285809 -50.591976 -1.245959 -25.91601 -1.2556946 -25.920183 -34.711006 -51.772961
3690000000 -34.301968 -50.722057 -1.2468851 -25.980122 -1.2557659 -25.984533 -34.776539 -52.11713
3700000000 -34.304356 -50.648258 -1.2465546 -26.042929 -1.2549032 -26.047871 -34.690498 -51.86108
3710000000 -34.313717 -50.570278 -1.2461276 -26.107817 -1.2552713 -26.117014 -34.68084 -51.955048
3720000000 -34.286404 -50.486805 -1.2463553 -26.177904 -1.2555847 -26.176107 -34.69722 -51.810875
3730000000 -34.200291 -50.461823 -1.2446911 -26.23579 -1.2546011 -26.239046 -34.569248 -51.181858
3740000000 -34.229919 -50.530106 -1.2446511 -26.299856 -1.2541599 -26.304605 -34.597885 -51.1506
3750000000 -34.185211 -50.479126 -1.2429986 -26.358927 -1.2536445 -26.362841 -34.501537 -50.092167
3760000000 -34.245922 -50.400475 -1.2438803 -26.422894 -1.2532868 -26.430264 -34.531677 -50.076061
3770000000 -34.267891 -50.67717 -1.2433636 -26.492205 -1.2530437 -26.492348 -34.520321 -50.312199
3780000000 -34.316105 -50.882309 -1.2428497 -26.56044 -1.2537284 -26.565796 -34.573284 -50.606995
3790000000 -34.450802 -51.140984 -1.2435572 -26.630175 -1.2533718 -26.628881 -34.70586 -51.022793
3800000000 -34.515812 -51.589615 -1.2439685 -26.695543 -1.2528074 -26.700293 -34.694313 -51.139351
3810000000 -34.613136 -51.928783 -1.2444739 -26.764215 -1.2527808 -26.767088 -34.69352 -51.654408
3820000000 -34.643692 -52.277187 -1.2427015 -26.826042 -1.2527584 -26.83699 -34.613308 -52.197338
3830000000 -34.598492 -52.272533 -1.2420068 -26.890873 -1.2522717 -26.897211 -34.541031 -52.333511
3840000000 -34.589596 -52.651287 -1.2429696 -26.961935 -1.252996 -26.962885 -34.488277 -52.4515
3850000000 -34.559822 -52.237053 -1.2426401 -27.019793 -1.2516528 -27.026495 -34.406853 -51.920925
3860000000 -34.535866 -52.214596 -1.2414811 -27.081005 -1.2516024 -27.086487 -34.35379 -51.256184
3870000000 -34.51062 -52.036182 -1.2411737 -27.146652 -1.2511518 -27.151234 -34.276546 -50.832481
3880000000 -34.543522 -51.976807 -1.2406925 -27.211105 -1.250657 -27.214153 -34.309864 -50.203049
3890000000 -34.597576 -52.010761 -1.241437 -27.274998 -1.2506111 -27.28126 -34.379402 -49.757801
3900000000 -34.644428 -52.227585 -1.240438 -27.343124 -1.2505879 -27.348677 -34.393745 -49.519497
3910000000 -34.728882 -52.643505 -1.2404445 -27.411158 -1.2505093 -27.412125 -34.468632 -49.701561
3920000000 -34.830563 -52.790874 -1.2410849 -27.478613 -1.2501717 -27.480366 -34.555511 -49.76746
3930000000 -34.91177 -53.038261 -1.240584 -27.543753 -1.2503552 -27.546141 -34.557281 -50.111694
3940000000 -34.987564 -53.175152 -1.2415926 -27.608047 -1.2510375 -27.611328 -34.643307 -50.619808
3950000000 -35.020191 -53.184711 -1.2419245 -27.674376 -1.2504761 -27.677626 -34.531433 -50.811737
3960000000 -35.041245 -53.318085 -1.2415179 -27.740234 -1.2501591 -27.744625 -34.49778 -51.495239
3970000000 -35.014751 -53.672871 -1.2406509 -27.802189 -1.2504277 -27.804394 -34.428078 -51.25502
3980000000 -35.012806 -53.615719 -1.2402127 -27.862022 -1.2494626 -27.87072 -34.350815 -50.930687
3990000000 -35.016533 -54.109871 -1.2398015 -27.929607 -1.2495168 -27.933313 -34.34021 -50.573742
4000000000 -35.000984 -54.037594 -1.2397485 -27.993868 -1.2486844 -27.995565 -34.305374 -50.196518
4010000000 -35.005501 -54.149555 -1.2388656 -28.060928 -1.2485467 -28.061338 -34.361797 -49.698284
4020000000 -35.0205 -54.095989 -1.2378193 -28.124556 -1.2483983 -28.12739 -34.418156 -49.546738
4030000000 -35.020027 -54.270111 -1.2386866 -28.191679 -1.24832 -28.193224 -34.462765 -49.275082
4040000000 -35.050896 -54.009979 -1.2384834 -28.252399 -1.2482526 -28.25703 -34.471798 -49.352856
4050000000 -35.114117 -54.053829 -1.2382748 -28.314129 -1.2479517 -28.317944 -34.519905 -49.540966
4060000000 -35.195187 -54.503948 -1.2385427 -28.384802 -1.2484748 -28.384014 -34.545265 -49.640385
4070000000 -35.212673 -54.951199 -1.2379987 -28.445858 -1.2482375 -28.445187 -34.524704 -49.720909
4080000000 -35.272228 -55.419758 -1.2385598 -28.510647 -1.2480208 -28.51137 -34.500332 -50.185757
4090000000 -35.338394 -55.532078 -1.2376159 -28.576803 -1.2481685 -28.577597 -34.491436 -50.559391
4100000000 -35.428963 -55.66782 -1.2374111 -28.643011 -1.2475084 -28.646338 -34.463882 -50.664082
4110000000 -35.430183 -55.550186 -1.2379181 -28.711428 -1.246395 -28.713018 -34.439537 -50.890854
4120000000 -35.447872 -55.363171 -1.2360473 -28.778046 -1.246785 -28.781954 -34.366032 -50.911266
4130000000 -35.489197 -55.658432 -1.2359523 -28.844616 -1.2454048 -28.841967 -34.385014 -50.711082
4140000000 -35.512535 -55.557171 -1.2357764 -28.907703 -1.2457966 -28.906748 -34.376026 -50.217255
4150000000 -35.521709 -55.240963 -1.2357974 -28.965532 -1.2456849 -28.969547 -34.318195 -49.48753
4160000000 -35.581551 -55.213436 -1.2355535 -29.029369 -1.2457862 -29.028225 -34.327316 -49.248249
4170000000 -35.560364 -55.128658 -1.2351978 -29.093887 -1.2448369 -29.091839 -34.279381 -48.737411
4180000000 -35.650997 -55.195595 -1.235525 -29.154465 -1.2456383 -29.155848 -34.317165 -48.533104
4190000000 -35.747601 -55.804005 -1.2353233 -29.22068 -1.245111 -29.218754 -34.35714 -48.544674
4200000000 -35.805725 -56.082851 -1.2346932 -29.286875 -1.2448449 -29.289265 -34.395424 -48.574924
4210000000 -35.974018 -56.687511 -1.2351029 -29.355946 -1.2439417 -29.356918 -34.420296 -49.329319
4220000000 -35.989513 -57.639469 -1.2350172 -29.424374 -1.2436742 -29.427723 -34.428703 -49.718437
4230000000 -36.070576 -57.83688 -1.2350929 -29.496855 -1.2442019 -29.495312 -34.413139 -50.482838
4240000000 -36.015499 -57.924732 -1.2336943 -29.562138 -1.2435211 -29.560392 -34.356083 -50.593971
4250000000 -35.988815 -57.937878 -1.2334065 -29.62582 -1.2435224 -29.631369 -34.268459 -50.83152
4260000000 -35.891972 -57.658066 -1.2332263 -29.686411 -1.2430261 -29.692106 -34.192009 -50.746052
4270000000 -35.919445 -57.356678 -1.2331434 -29.751383 -1.2428632 -29.750183 -34.147419 -50.454708
4280000000 -35.895473 -57.196991 -1.2329684 -29.809076 -1.2425603 -29.815077 -34.161171 -49.921997
4290000000 -35.928307 -57.458748 -1.2322845 -29.875875 -1.241798 -29.878096 -34.124702 -49.647511
4300000000 -35.942097 -58.197968 -1.2327542 -29.948574 -1.2413701 -29.949284 -34.183891 -49.16095
4310000000 -35.999214 -58.672943 -1.2321181 -30.016844 -1.2412751 -30.01568 -34.250576 -49.088154
4320000000 -36.038219 -58.969574 -1.2312974 -30.080751 -1.240623 -30.082355 -34.295971 -49.39436
4330000000 -36.189022 -59.198193 -1.2326431 -30.148161 -1.2411706 -30.15225 -34.410721 -49.826393
4340000000 -36.268753 -59.642345 -1.2323606 -30.212704 -1.2413101 -30.216908 -34.433475 -50.696453
4350000000 -36.313236 -59.747074 -1.2320133 -30.282167 -1.2417274 -30.281368 -34.409874 -51.087776
4360000000 -36.428856 -59.535507 -1.231882 -30.347668 -1.2422549 -30.349625 -34.365776 -51.660633
4370000000 -36.479771 -59.907387 -1.2319298 -30.416018 -1.2411056 -30.416605 -34.238853 -52.219078
4380000000 -36.487755 -59.947479 -1.2324241 -30.475368 -1.2403102 -30.476898 -34.152184 -52.181942
4390000000 -36.517838 -60.256573 -1.2317387 -30.540089 -1.2401979 -30.544395 -34.111008 -52.032646
4400000000 -36.586315 -60.470478 -1.2314874 -30.608128 -1.2404697 -30.608929 -34.067631 -51.48354
4410000000 -36.572128 -60.119457 -1.2298512 -30.666512 -1.2405461 -30.676296 -34.017063 -51.219315
4420000000 -36.691406 -60.333439 -1.2300183 -30.738533 -1.2397953 -30.740452 -34.043087 -50.786457
4430000000 -36.733135 -60.161968 -1.230546 -30.807938 -1.2388319 -30.807165 -34.098644 -50.327637
4440000000 -36.762379 -60.206787 -1.2297932 -30.875282 -1.2391452 -30.873989 -34.136879 -50.403275
4450000000 -36.809322 -60.835587 -1.2302932 -30.934525 -1.2387894 -30.946466 -34.236332 -50.394474
4460000000 -36.851631 -60.952328 -1.2298197 -31.004944 -1.2392801 -31.007086 -34.26828 -50.534817
4470000000 -36.908997 -61.413982 -1.2294352 -31.072758 -1.2398205 -31.074179 -34.22963 -50.796227
4480000000 -36.90181 -61.43594 -1.2301013 -31.129414 -1.2396079 -31.133842 -34.182983 -50.501534
4490000000 -36.92548 -61.15591 -1.2303443 -31.194807 -1.2390598 -31.192818 -34.107857 -50.651588
4500000000 -36.988823 -61.462639 -1.2291417 -31.257727 -1.2397099 -31.263767 -33.99078 -50.991955
4510000000 -37.105743 -61.371414 -1.22982 -31.324652 -1.2392502 -31.32822 -33.897766 -51.442993
4520000000 -37.194077 -61.62508 -1.2285746 -31.392406 -1.2394276 -31.399279 -33.868965 -51.919506
4530000000 -37.402771 -62.364704 -1.2294964 -31.467478 -1.2382579 -31.473055 -33.90451 -52.064056
4540000000 -37.441837 -62.874592 -1.229239 -31.540981 -1.238304 -31.541988 -33.928837 -52.22752
4550000000 -37.504311 -63.656429 -1.2282071 -31.608053 -1.2377832 -31.610521 -33.866215 -52.024788
4560000000 -37.493946 -63.870232 -1.2278235 -31.674623 -1.2379938 -31.678753 -33.899544 -52.053329
4570000000 -37.421673 -64.12291 -1.2277616 -31.732674 -1.2371402 -31.738632 -33.85939 -51.69191
4580000000 -37.257275 -64.293594 -1.2275707 -31.790207 -1.236241 -31.797604 -33.83667 -51.034645
4590000000 -37.234436 -64.310242 -1.2278856 -31.853014 -1.2375023 -31.856989 -33.860718 -50.793247
4600000000 -37.195797 -64.12999 -1.2278898 -31.913486 -1.2368212 -31.918215 -33.811451 -50.300014
4610000000 -37.261887 -64.649963 -1.2279426 -31.9823 -1.2374965 -31.987013 -33.874817 -50.733196
4620000000 -37.336517 -65.354454 -1.228169 -32.050583 -1.2373158 -32.058002 -33.879234 -51.423256
4630000000 -37.372341 -65.597214 -1.2263857 -32.123775 -1.2374011 -32.13229 -33.949432 -52.394238
4640000000 -37.451977 -65.715622 -1.2272091 -32.201828 -1.2371739 -32.201668 -33.946144 -53.139805
4650000000 -37.582455 -65.802101 -1.2272332 -32.270668 -1.2359654 -32.271824 -33.894962 -53.668644
4660000000 -37.632828 -65.953827 -1.2266772 -32.332073 -1.236071 -32.337589 -33.797783 -54.262932
4670000000 -37.68457 -65.729027 -1.2266912 -32.396122 -1.2359701 -32.394741 -33.686043 -53.988323
4680000000 -37.728855 -65.740585 -1.2264104 -32.460705 -1.2355112 -32.45911 -33.66227 -53.7957
4690000000 -37.785542 -66.225838 -1.2260458 -32.518738 -1.2350051 -32.521873 -33.580181 -53.321728
4700000000 -37.870411 -66.216423 -1.2265581 -32.580227 -1.2363415 -32.584469 -33.580669 -52.661438
4710000000 -37.914825 -66.833054 -1.2261958 -32.644051 -1.2365872 -32.649239 -33.587433 -52.309563
4720000000 -37.921829 -67.520187 -1.2259078 -32.718903 -1.236197 -32.717342 -33.635487 -52.2514
4730000000 -38.048561 -68.586586 -1.2259222 -32.786888 -1.2362658 -32.790813 -33.764057 -52.462292
4740000000 -38.108055 -69.262299 -1.2254987 -32.85796 -1.235046 -32.861 -33.786526 -52.961193
4750000000 -38.181114 -69.715317 -1.2255365 -32.916912 -1.2354039 -32.925224 -33.8176 -53.452999
4760000000 -38.169281 -69.841362 -1.2257365 -32.989483 -1.2351569 -32.990852 -33.774033 -53.447357
4770000000 -38.082741 -69.314629 -1.2250775 -33.047333 -1.2356536 -33.050381 -33.659134 -53.854992
4780000000 -38.132824 -69.083023 -1.2251986 -33.110931 -1.2362875 -33.116714 -33.61636 -54.046528
4790000000 -38.217072 -68.774216 -1.2254012 -33.172211 -1.2353663 -33.170834 -33.490543 -54.111595
4800000000 -38.373615 -69.381638 -1.2258605 -33.243233 -1.2356374 -33.237732 -33.46109 -54.639549
4810000000 -38.491116 -69.912216 -1.2264259 -33.306664 -1.2349924 -33.307034 -33.42202 -54.835167
4820000000 -38.549309 -71.611877 -1.2252638 -33.379963 -1.2348293 -33.384075 -33.462116 -54.726006
4830000000 -38.588543 -72.697205 -1.2246729 -33.448689 -1.2345459 -33.454769 -33.504772 -54.94162
4840000000 -38.582191 -73.450333 -1.225108 -33.520218 -1.2344097 -33.520897 -33.504372 -54.55864
4850000000 -38.552654 -74.257072 -1.2251217 -33.58453 -1.2339904 -33.587791 -33.500233 -54.371445
4860000000 -38.500923 -74.350136 -1.2245723 -33.647926 -1.2344929 -33.654758 -33.536613 -54.188576
4870000000 -38.510571 -74.592461 -1.225093 -33.710472 -1.2350276 -33.715199 -33.537354 -53.916019
4880000000 -38.486252 -74.02066 -1.2254176 -33.775589 -1.2348015 -33.776817 -33.54488 -54.117088
4890000000 -38.432915 -73.623749 -1.2241217 -33.84053 -1.2341346 -33.843235 -33.563221 -54.432613
4900000000 -38.399342 -73.385002 -1.2244552 -33.906017 -1.2337824 -33.908062 -33.512226 -54.355255
4910000000 -38.477219 -73.442276 -1.2245771 -33.970112 -1.2342694 -33.96867 -33.475586 -54.428238
4920000000 -38.545868 -73.633781 -1.2238394 -34.030903 -1.2344272 -34.041386 -33.451603 -55.066467
4930000000 -38.682281 -73.930389 -1.2240047 -34.101677 -1.2336338 -34.102421 -33.415813 -55.396587
4940000000 -38.799953 -74.902008 -1.2239927 -34.1777 -1.2328292 -34.173153 -33.429691 -56.022068
4950000000 -38.991108 -76.051376 -1.223791 -34.24754 -1.2329024 -34.251637 -33.386303 -56.511299
4960000000 -38.970234 -76.815666 -1.2235574 -34.314266 -1.2326807 -34.31879 -33.37442 -56.987972
4970000000 -38.880245 -77.731201 -1.2233504 -34.377594 -1.2327756 -34.382931 -33.33984 -56.694626
4980000000 -38.877285 -78.309082 -1.223489 -34.442532 -1.2334667 -34.444809 -33.290905 -56.466667
4990000000 -38.796432 -78.548904 -1.2235618 -34.500755 -1.2336476 -34.505264 -33.310314 -55.922729
5000000000 -38.711952 -78.318718 -1.2244337 -34.564606 -1.2338519 -34.563625 -33.304062 -55.195717
5010000000 -38.620037 -78.790932 -1.223757 -34.625977 -1.2340224 -34.6255 -33.287399 -54.661366
5020000000 -38.533569 -78.79789 -1.2233984 -34.692909 -1.233184 -34.690037 -33.29623 -54.695339
5030000000 -38.614628 -78.780334 -1.2237689 -34.761673 -1.2331936 -34.760792 -33.329319 -55.359444
5040000000 -38.684162 -78.824066 -1.2223741 -34.831642 -1.2322336 -34.836174 -33.36512 -56.208496
5050000000 -38.794556 -78.706711 -1.2221221 -34.897854 -1.2315867 -34.899952 -33.295849 -56.927696
5060000000 -38.839821 -79.485458 -1.2226574 -34.96648 -1.2314361 -34.969501 -33.283848 -57.579334
5070000000 -38.828144 -79.999245 -1.2211003 -35.033199 -1.2316132 -35.037201 -33.252769 -58.059128
5080000000 -38.914585 -81.033012 -1.2224009 -35.097176 -1.2314768 -35.09893 -33.208252 -58.302658
5090000000 -39.011581 -81.367012 -1.2221144 -35.166214 -1.2315414 -35.167446 -33.179836 -58.634308
5100000000 -38.910259 -82.435509 -1.2221183 -35.226795 -1.2314947 -35.233376 -33.192417 -58.680553
5110000000 -38.929924 -83.562294 -1.2228098 -35.294113 -1.2312698 -35.29562 -33.169685 -58.647987
5120000000 -38.884422 -84.208183 -1.2227576 -35.356873 -1.2321526 -35.364407 -33.164719 -58.400261
5130000000 -38.766876 -85.653099 -1.2219611 -35.427608 -1.2312554 -35.429123 -33.196095 -58.257095
5140000000 -38.63224 -86.028564 -1.2213185 -35.491039 -1.2313097 -35.493538 -33.175613 -57.999542
5150000000 -38.722309 -86.576866 -1.2212222 -35.561943 -1.230778 -35.564003 -33.205338 -58.326614
5160000000 -38.629303 -87.04583 -1.2203125 -35.628643 -1.2295939 -35.635826 -33.173775 -58.825481
5170000000 -38.71772 -86.969177 -1.2199463 -35.697205 -1.2284153 -35.704269 -33.164463 -59.290222
5180000000 -38.775753 -86.234291 -1.219223 -35.762016 -1.2284276 -35.766098 -33.078712 -59.916256
5190000000 -38.820763 -85.913872 -1.2194455 -35.822269 -1.2288109 -35.825184 -33.026817 -59.923496
5200000000 -38.954796 -85.759216 -1.2205607 -35.887459 -1.229553 -35.885239 -32.988297 -59.962818
5210000000 -39.02285 -86.330818 -1.2201533 -35.951195 -1.230545 -35.945183 -32.988518 -60.143211
5220000000 -39.124771 -87.493332 -1.2196401 -36.015591 -1.2303436 -36.014698 -32.980976 -60.187675
5230000000 -39.053307 -89.214645 -1.2206906 -36.086105 -1.2299427 -36.087978 -32.994106 -60.627083
5240000000 -39.02734 -90.657654 -1.2199658 -36.157581 -1.2299684 -36.159412 -32.979294 -60.665051
5250000000 -38.917896 -92.093056 -1.2197139 -36.221321 -1.2294265 -36.226608 -32.989445 -60.804031
5260000000 -38.899948 -93.247612 -1.2201349 -36.28949 -1.2297289 -36.294098 -32.966522 -61.331303
5270000000 -38.926006 -93.399971 -1.2204379 -36.355366 -1.2287759 -36.357845 -32.920792 -61.562737
5280000000 -38.826302 -93.531044 -1.2198805 -36.419006 -1.2291977 -36.420795 -32.920742 -61.824051
5290000000 -38.712948 -93.500702 -1.2184269 -36.488335 -1.2284688 -36.489254 -32.866184 -61.854862
5300000000 -38.67754 -93.784645 -1.2183354 -36.548721 -1.2274317 -36.551449 -32.823196 -61.928547
5310000000 -38.570705 -93.465973 -1.2184584 -36.613338 -1.2287264 -36.614342 -32.797222 -62.118568
5320000000 -38.553684 -93.769295 -1.2185783 -36.672977 -1.2288563 -36.676659 -32.763996 -61.888992
5330000000 -38.621628 -93.872513 -1.2190633 -36.735313 -1.2282469 -36.740143 -32.754826 -62.112492
5340000000 -38.595581 -94.036186 -1.2182641 -36.800999 -1.2290548 -36.802216 -32.741344 -62.252857
5350000000 -38.598202 -95.266602 -1.2183312 -36.871006 -1.2283291 -36.870777 -32.724316 -62.966969
5360000000 -38.642639 -96.930328 -1.2184838 -36.937355 -1.2274123 -36.94421 -32.702633 -63.82859
5370000000 -38.621593 -98.726448 -1.2183703 -37.010838 -1.2285485 -37.016785 -32.674953 -64.425247
5380000000 -38.472893 -99.900688 -1.2185445 -37.081429 -1.2272675 -37.082195 -32.651016 -65.384697
5390000000 -38.450329 -100.96331 -1.2182354 -37.148026 -1.2272633 -37.151928 -32.632221 -65.659615
5400000000 -38.276829 -100.94212 -1.2176137 -37.211525 -1.2276703 -37.21106 -32.659622 -65.674492
5410000000 -38.206367 -100.93392 -1.2179705 -37.274738 -1.2274814 -37.273861 -32.667149 -65.557053
5420000000 -38.059151 -100.73467 -1.2185026 -37.330456 -1.2277853 -37.332344 -32.657318 -65.437096
5430000000 -38.014774 -100.64914 -1.2183447 -37.39436 -1.2268656 -37.39415 -32.652687 -65.156212
5440000000 -37.980553 -100.69115 -1.2173458 -37.465267 -1.2264091 -37.461136 -32.645111 -65.282112
5450000000 -37.938641 -101.27038 -1.2168583 -37.526157 -1.2255065 -37.527657 -32.673111 -65.589851
5460000000 -37.975681 -102.33923 -1.2162064 -37.600323 -1.2247137 -37.602154 -32.623028 -65.979698
5470000000 -38.003609 -102.63554 -1.2156324 -37.670731 -1.2241602 -37.672535 -32.603264 -66.912628
5480000000 -37.963993 -103.43514 -1.2159088 -37.737366 -1.2242539 -37.737 -32.589233 -67.332306
5490000000 -38.043388 -104.32031 -1.2154154 -37.801758 -1.2235528 -37.80492 -32.480042 -67.915764
5500000000 -38.082409 -104.91573 -1.2158537 -37.868767 -1.2244694 -37.86216 -32.474815 -68.323395
5510000000 -38.039997 -105.78471 -1.2164586 -37.926113 -1.2259284 -37.928356 -32.475563 -68.318398
5520000000 -38.01273 -106.33887 -1.2164531 -37.985844 -1.2256991 -37.997471 -32.523972 -68.595543
5530000000 -37.94067 -107.24297 -1.2167442 -38.056427 -1.2253792 -38.062878 -32.520267 -68.535461
5540000000 -37.759789 -108.51586 -1.2165791 -38.128307 -1.2254375 -38.12727 -32.547916 -68.686333
5550000000 -37.633518 -109.09821 -1.2170875 -38.201618 -1.2246598 -38.199295 -32.505825 -68.782188
5560000000 -37.602512 -110.24693 -1.2158407 -38.271198 -1.2241129 -38.271885 -32.49918 -68.958008
5570000000 -37.578247 -109.71779 -1.2150725 -38.339249 -1.2235934 -38.344524 -32.490273 -69.382225
5580000000 -37.583073 -109.79073 -1.2139827 -38.403736 -1.222652 -38.407948 -32.443592 -69.231346
5590000000 -37.606045 -109.61501 -1.2142709 -38.469807 -1.2231913 -38.467247 -32.412712 -69.516357
5600000000 -37.608494 -109.53488 -1.2141114 -38.528393 -1.2226671 -38.527348 -32.403301 -69.743706
5610000000 -37.599434 -109.68777 -1.2145202 -38.593426 -1.2229675 -38.595692 -32.385609 -69.904106
5620000000 -37.636791 -110.44139 -1.2152297 -38.654041 -1.2242336 -38.657028 -32.454746 -70.069664
5630000000 -37.530704 -111.44507 -1.2152259 -38.727009 -1.2240102 -38.721024 -32.5023 -70.677696
5640000000 -37.406185 -112.8778 -1.2156482 -38.794628 -1.224211 -38.796783 -32.522171 -71.357529
5650000000 -37.305729 -114.21738 -1.2154609 -38.86026 -1.2241849 -38.862827 -32.521111 -71.85733
5660000000 -37.270782 -115.56459 -1.2146435 -38.933243 -1.2245226 -38.939419 -32.513474 -72.57515
5670000000 -37.178059 -116.83292 -1.2142997 -39.001427 -1.2238986 -39.009315 -32.440536 -72.86702
5680000000 -37.10611 -117.13888 -1.2145209 -39.072906 -1.2237974 -39.081188 -32.418209 -73.527901
5690000000 -37.032288 -117.19554 -1.2129934 -39.135052 -1.2228475 -39.142818 -32.361847 -73.573982
5700000000 -37.021149 -116.7658 -1.213222 -39.200207 -1.2230238 -39.202881 -32.350487 -73.707069
5710000000 -36.990376 -115.93124 -1.2132977 -39.261005 -1.2223735 -39.258652 -32.371811 -73.603249
5720000000 -36.867085 -115.49046 -1.2134104 -39.320023 -1.2223227 -39.322945 -32.378235 -73.237671
5730000000 -36.844715 -115.54818 -1.2131335 -39.382721 -1.2227556 -39.384323 -32.392181 -73.089661
5740000000 -36.790718 -115.34155 -1.2134836 -39.447842 -1.2225336 -39.442169 -32.482986 -73.25293
5750000000 -36.761772 -115.75482 -1.2134678 -39.510925 -1.2226894 -39.509914 -32.527775 -73.717949
5760000000 -36.680443 -116.41054 -1.213487 -39.580463 -1.2234191 -39.579407 -32.552261 -74.262032
5770000000 -36.612946 -118.02735 -1.2133546 -39.655952 -1.2227343 -39.650852 -32.523647 -75.59272
5780000000 -36.555984 -119.29125 -1.2125205 -39.7258 -1.222109 -39.72366 -32.42815 -76.566307
5790000000 -36.502316 -120.73663 -1.2122717 -39.792458 -1.2221512 -39.799603 -32.290245 -77.457077
5800000000 -36.446507 -121.1289 -1.2124329 -39.860847 -1.221397 -39.870274 -32.233128 -78.645119
5810000000 -36.434036 -121.69281 -1.2121543 -39.924145 -1.2211103 -39.93169 -32.118279 -78.769684
5820000000 -36.428856 -122.07664 -1.2120708 -39.991421 -1.2218665 -39.990475 -32.096111 -78.879051
5830000000 -36.326603 -122.12986 -1.212194 -40.050243 -1.2214926 -40.051907 -32.078972 -78.631935
5840000000 -36.246246 -122.16927 -1.212849 -40.114464 -1.2204077 -40.113785 -32.0867 -78.447197
5850000000 -36.158253 -122.79753 -1.2115151 -40.174908 -1.2210798 -40.177475 -32.129662 -78.003746
5860000000 -36.043808 -123.32455 -1.2109616 -40.241772 -1.2197695 -40.248386 -32.161251 -77.572868
5870000000 -35.98777 -123.91734 -1.2107457 -40.312408 -1.219247 -40.316303 -32.189186 -77.897568
5880000000 -35.91613 -124.22412 -1.2100612 -40.383255 -1.2183946 -40.389008 -32.175526 -78.557091
5890000000 -35.865845 -124.91146 -1.2096295 -40.45496 -1.2180393 -40.4636 -32.149635 -79.358093
5900000000 -35.848186 -125.66311 -1.2094476 -40.519112 -1.2184807 -40.524715 -32.138657 -80.436066
5910000000 -35.836361 -125.9831 -1.210566 -40.587719 -1.2188755 -40.588619 -32.123375 -81.325127
5920000000 -35.724449 -126.15104 -1.20999 -40.655708 -1.2194219 -40.650894 -32.128414 -82.035057
5930000000 -35.655289 -126.77949 -1.2113618 -40.720737 -1.2185959 -40.720085 -32.138405 -82.6567
5940000000 -35.597294 -127.45211 -1.2109089 -40.781441 -1.2196796 -40.784546 -32.069954 -83.168251
5950000000 -35.513912 -127.73825 -1.2104634 -40.847965 -1.2194098 -40.851273 -32.030014 -83.608864
5960000000 -35.419262 -128.05104 -1.2097818 -40.915382 -1.2195686 -40.920246 -31.950443 -83.622772
5970000000 -35.304817 -128.33383 -1.2088752 -40.982578 -1.2187008 -40.989098 -31.903673 -83.682617
5980000000 -35.242733 -128.64938 -1.208802 -41.054523 -1.2180554 -41.055866 -31.890745 -83.647133
5990000000 -35.17598 -128.87741 -1.208189 -41.120007 -1.2170128 -41.124203 -31.841455 -83.465538
6000000000 -35.139 -128.40266 -1.2078065 -41.184032 -1.2175212 -41.1922 -31.864941 -83.420029
6010000000 -35.084267 -128.68991 -1.2074906 -41.255608 -1.2180349 -41.255653 -31.869856 -83.604782
6020000000 -35.092056 -128.76019 -1.2081541 -41.315437 -1.2187357 -41.314423 -31.914385 -83.989113
6030000000 -35.06955 -128.93285 -1.2086043 -41.379566 -1.2182699 -41.381805 -31.97797 -84.558372
6040000000 -35.078396 -129.4478 -1.2094299 -41.441948 -1.2178954 -41.447819 -32.028645 -85.106552
6050000000 -35.011463 -129.96867 -1.2094398 -41.507259 -1.2182107 -41.51384 -32.08543 -86.116905
6060000000 -34.982464 -130.52335 -1.2096059 -41.573009 -1.2189746 -41.585701 -32.075272 -86.931648
6070000000 -34.920658 -131.57625 -1.2095085 -41.648499 -1.217927 -41.652153 -32.018135 -87.550964
6080000000 -34.849422 -132.19318 -1.2094326 -41.719528 -1.218051 -41.725685 -31.91029 -88.021965
6090000000 -34.800484 -132.8797 -1.2082659 -41.791248 -1.2169594 -41.794319 -31.787373 -88.636765
6100000000 -34.74482 -133.39445 -1.2066593 -41.858418 -1.216464 -41.863014 -31.673134 -88.887131
6110000000 -34.71056 -133.40283 -1.2070462 -41.920296 -1.2171307 -41.926178 -31.607918 -88.756516
6120000000 -34.649471 -133.23969 -1.2064409 -41.981094 -1.2169782 -41.984531 -31.57572 -88.576767
6130000000 -34.582222 -133.42519 -1.2070571 -42.041862 -1.2170104 -42.047756 -31.586826 -88.396584
6140000000 -34.561642 -133.64665 -1.207695 -42.105171 -1.2163048 -42.106831 -31.623953 -88.34314
6150000000 -34.471432 -133.79691 -1.2078713 -42.163265 -1.2168409 -42.16946 -31.684696 -88.192818
6160000000 -34.349247 -133.81639 -1.2078949 -42.230507 -1.2163593 -42.240402 -31.76256 -88.457115
6170000000 -34.259659 -134.05775 -1.2081531 -42.298496 -1.2169471 -42.308277 -31.808643 -89.171181
6180000000 -34.159439 -134.46986 -1.2073033 -42.366184 -1.2168987 -42.377003 -31.785526 -89.952538
6190000000 -34.066425 -134.8857 -1.2079291 -42.44408 -1.2164174 -42.446087 -31.683702 -90.938286
6200000000 -34.020466 -135.26506 -1.2075535 -42.506649 -1.2159146 -42.514866 -31.604696 -91.789421
6210000000 -33.97427 -135.42134 -1.2066344 -42.577675 -1.2163057 -42.580906 -31.481926 -92.474098
6220000000 -33.963219 -135.68423 -1.2065343 -42.638611 -1.2159687 -42.644543 -31.377661 -93.114723
6230000000 -33.910744 -135.82706 -1.2061555 -42.7038 -1.2153287 -42.708782 -31.309145 -93.374336
6240000000 -33.872322 -135.97394 -1.2061453 -42.763653 -1.2158784 -42.767662 -31.277296 -93.613304
6250000000 -33.80785 -136.2907 -1.2052333 -42.828228 -1.2148297 -42.832279 -31.262201 -93.398613
6260000000 -33.720264 -136.31367 -1.2058494 -42.88855 -1.2154064 -42.89246 -31.313236 -93.179581
6270000000 -33.623802 -136.73441 -1.2050413 -42.954685 -1.2150065 -42.957092 -31.378172 -93.190041
6280000000 -33.514854 -136.63048 -1.2053721 -43.027637 -1.2148 -43.028133 -31.438702 -93.220863
6290000000 -33.398209 -136.56854 -1.2046 -43.10075 -1.2144688 -43.098091 -31.503357 -93.624054
6300000000 -33.300087 -136.62924 -1.2045712 -43.166981 -1.2131772 -43.171391 -31.521187 -94.092957
6310000000 -33.29932 -136.8757 -1.2047749 -43.23135 -1.2129592 -43.241219 -31.506489 -94.779457
6320000000 -33.305473 -136.98521 -1.2047677 -43.300095 -1.2139304 -43.305244 -31.458178 -95.529877
6330000000 -33.324406 -137.20456 -1.204658 -43.360107 -1.2136068 -43.366306 -31.438864 -96.55983
6340000000 -33.38636 -137.51056 -1.2052597 -43.432358 -1.2139235 -43.430111 -31.395836 -97.155869
6350000000 -33.39526 -137.72949 -1.2047602 -43.489906 -1.2136105 -43.495846 -31.369802 -97.962601
6360000000 -33.347401 -138.12114 -1.2040223 -43.558434 -1.2134267 -43.559277 -31.302528 -98.372063
6370000000 -33.32103 -138.58209 -1.2039745 -43.621571 -1.2126372 -43.630432 -31.251526 -98.434998
6380000000 -33.215721 -138.81281 -1.2031077 -43.694744 -1.2122046 -43.69965 -31.22859 -98.486145
6390000000 -33.121407 -139.08815 -1.202109 -43.761253 -1.2120458 -43.768024 -31.181324 -98.214653
6400000000 -33.031391 -138.87227 -1.2017601 -43.831875 -1.2108644 -43.838024 -31.172092 -98.066162
6410000000 -32.958092 -138.99408 -1.2017591 -43.897133 -1.2105227 -43.907967 -31.150927 -98.021767
6420000000 -32.901142 -139.09888 -1.201712 -43.964668 -1.2100257 -43.971329 -31.151419 -98.076263
6430000000 -32.833664 -139.40567 -1.2010412 -44.028435 -1.2114408 -44.032696 -31.19132 -98.331215
6440000000 -32.811878 -139.79295 -1.2016525 -44.086544 -1.2101461 -44.095905 -31.208321 -98.650627
6450000000 -32.800808 -140.00038 -1.2019516 -44.155586 -1.2107224 -44.16288 -31.178501 -99.42012
6460000000 -32.760155 -140.4127 -1.2017345 -44.221428 -1.211301 -44.229885 -31.189735 -99.96138
6470000000 -32.731739 -140.64476 -1.2017195 -44.285717 -1.2113122 -44.294956 -31.189123 -100.89313
6480000000 -32.635227 -141.11011 -1.2014771 -44.354355 -1.2115335 -44.366127 -31.157183 -101.35316
6490000000 -32.567791 -141.2588 -1.2011275 -44.427986 -1.2108617 -44.436676 -31.1049 -101.72051
6500000000 -32.545261 -141.63588 -1.2002797 -44.498852 -1.2094408 -44.501942 -31.014877 -101.78793
6510000000 -32.492573 -141.77824 -1.1994799 -44.565319 -1.2094626 -44.572617 -30.9228 -102.00007
6520000000 -32.49139 -141.74356 -1.1984926 -44.632648 -1.2087548 -44.639698 -30.857924 -101.96043
6530000000 -32.424984 -141.52634 -1.198815 -44.695431 -1.2081517 -44.70792 -30.84927 -101.84602
6540000000 -32.410465 -141.45801 -1.1981843 -44.758293 -1.2084621 -44.762352 -30.868578 -101.81144
6550000000 -32.369133 -141.55569 -1.1984606 -44.822094 -1.2087452 -44.823246 -30.939745 -101.60477
6560000000 -32.333527 -141.32477 -1.1991903 -44.878819 -1.2085291 -44.886879 -31.030113 -101.77314
6570000000 -32.262295 -141.3683 -1.1995996 -44.946014 -1.2084293 -44.952065 -31.090654 -101.90464
6580000000 -32.198345 -141.23689 -1.2001415 -45.017063 -1.2095188 -45.019207 -31.139523 -102.53515
6590000000 -32.125153 -141.25653 -1.1992213 -45.088387 -1.2094613 -45.093311 -31.176336 -102.9324
6600000000 -32.104279 -141.65572 -1.1988357 -45.163223 -1.2098297 -45.164997 -31.09992 -103.28621
6610000000 -32.082134 -141.86037 -1.1995649 -45.230644 -1.2086803 -45.233879 -31.022636 -103.74762
6620000000 -32.061291 -142.27234 -1.1988678 -45.307411 -1.2079213 -45.307213 -30.900583 -104.22115
6630000000 -32.086014 -142.53548 -1.1985075 -45.369408 -1.2079985 -45.369053 -30.796757 -104.70055
6640000000 -32.08379 -143.07979 -1.1968439 -45.431622 -1.2075945 -45.437016 -30.714603 -104.83451
6650000000 -32.057491 -143.51563 -1.1973466 -45.49176 -1.208003 -45.497421 -30.686722 -105.0613
6660000000 -32.054642 -143.96257 -1.1968173 -45.55228 -1.2073833 -45.558853 -30.63566 -105.12157
6670000000 -31.989813 -144.50192 -1.1973794 -45.612991 -1.2072065 -45.616005 -30.691269 -105.04224
6680000000 -31.883696 -144.81519 -1.1966847 -45.680187 -1.2070127 -45.683804 -30.733938 -104.95638
6690000000 -31.726727 -144.66858 -1.1965957 -45.750244 -1.2071747 -45.75618 -30.816031 -104.92118
6700000000 -31.597477 -144.4977 -1.1962417 -45.822445 -1.2065731 -45.823402 -30.897429 -105.14304
6710000000 -31.472939 -144.55513 -1.1949505 -45.896061 -1.2060384 -45.895184 -30.929585 -105.47159
6720000000 -31.434507 -144.36459 -1.1953363 -45.965824 -1.2057784 -45.961517 -30.954969 -106.19905
6730000000 -31.437826 -144.407 -1.1953186 -46.032673 -1.2055206 -46.029789 -30.924883 -106.83881
6740000000 -31.458693 -144.44437 -1.1960065 -46.096329 -1.2054721 -46.099964 -30.869772 -107.49086
6750000000 -31.442848 -144.61008 -1.1949395 -46.16235 -1.2053772 -46.161697 -30.811598 -108.17788
6760000000 -31.472403 -144.92517 -1.1944331 -46.228798 -1.2052436 -46.230209 -30.698462 -108.71964
6770000000 -31.448933 -145.14291 -1.1947064 -46.293659 -1.2043407 -46.292538 -30.655582 -109.0631
6780000000 -31.429768 -145.11368 -1.1946297 -46.355339 -1.2039613 -46.357311 -30.626011 -109.26538
6790000000 -31.348953 -145.41187 -1.1941891 -46.423607 -1.2046881 -46.425133 -30.586676 -109.02721
6800000000 -31.307938 -145.26747 -1.1938527 -46.497414 -1.2041323 -46.490437 -30.546926 -108.89333
6810000000 -31.232298 -145.43369 -1.1934898 -46.561523 -1.2039028 -46.558266 -30.534609 -108.68517
6820000000 -31.137655 -145.10588 -1.193006 -46.629303 -1.2036494 -46.630009 -30.555073 -108.65374
6830000000 -31.043413 -144.94008 -1.1934489 -46.698559 -1.20263 -46.695259 -30.589092 -108.79978
6840000000 -30.968561 -145.04115 -1.1923866 -46.764378 -1.2026385 -46.767273 -30.632627 -109.12536
6850000000 -30.935177 -145.321 -1.1923621 -46.82909 -1.2024139 -46.829174 -30.649729 -109.53703
6860000000 -30.929932 -145.53349 -1.1926877 -46.900398 -1.2025238 -46.892914 -30.665636 -110.02771
6870000000 -30.941744 -145.71446 -1.1924998 -46.964394 -1.2027328 -46.957813 -30.640039 -110.87609
6880000000 -30.92663 -146.05498 -1.1915399 -47.026527 -1.2016553 -47.025284 -30.626261 -111.29162
6890000000 -30.9382 -146.29083 -1.1914084 -47.091694 -1.2013173 -47.091915 -30.579393 -111.90129
6900000000 -30.93084 -146.5605 -1.1913948 -47.158726 -1.2009152 -47.161247 -30.505985 -112.19274
6910000000 -30.891378 -146.60532 -1.1910601 -47.225643 -1.201299 -47.224838 -30.465202 -112.56768
6920000000 -30.845266 -146.65562 -1.1903473 -47.30109 -1.2010033 -47.300064 -30.424818 -112.3548
6930000000 -30.856544 -146.80382 -1.1902639 -47.366688 -1.2006954 -47.361229 -30.370785 -112.36697
6940000000 -30.801832 -146.59404 -1.1898884 -47.430305 -1.1996969 -47.427387 -30.35671 -112.19652
6950000000 -30.776989 -146.85368 -1.1889819 -47.499332 -1.1995754 -47.494896 -30.357218 -112.05823
6960000000 -30.733133 -146.85315 -1.1891463 -47.556461 -1.2000835 -47.560329 -30.400612 -112.03622
6970000000 -30.668024 -146.85051 -1.1902418 -47.623222 -1.2004197 -47.626968 -30.48765 -112.21275
6980000000 -30.631599 -146.87231 -1.1903014 -47.683861 -1.2006893 -47.682999 -30.55035 -112.6672
6990000000 -30.587547 -146.67973 -1.1896501 -47.751991 -1.1994785 -47.747398 -30.616776 -113.05468
7000000000 -30.540844 -146.66251 -1.1890388 -47.814754 -1.2001047 -47.819939 -30.635744 -113.57896
7010000000 -30.541958 -146.60359 -1.1891241 -47.886749 -1.1986877 -47.882195 -30.623199 -114.21433
7020000000 -30.557095 -146.52956 -1.1876957 -47.955521 -1.1985942 -47.954918 -30.566137 -114.53043
7030000000 -30.555553 -146.57962 -1.1882594 -48.026016 -1.1989354 -48.02689 -30.443417 -114.90348
7040000000 -30.558899 -146.66325 -1.1865149 -48.0965 -1.1977224 -48.094448 -30.351231 -114.97502
7050000000 -30.542925 -146.94006 -1.1866512 -48.163021 -1.1981801 -48.158997 -30.272655 -115.36807
7060000000 -30.526867 -146.94899 -1.1868281 -48.227699 -1.1976255 -48.222008 -30.2208 -115.479
7070000000 -30.490734 -147.35805 -1.1873429 -48.29171 -1.1968105 -48.28611 -30.217386 -115.73831
7080000000 -30.437658 -147.5074 -1.1861063 -48.351608 -1.1971505 -48.349625 -30.265688 -115.68991
7090000000 -30.388002 -147.86403 -1.1867404 -48.413776 -1.1963741 -48.40704 -30.289228 -115.6726
7100000000 -30.329044 -147.78362 -1.1864505 -48.480251 -1.1964771 -48.477993 -30.292675 -115.83419
7110000000 -30.230619 -147.74269 -1.1868087 -48.543915 -1.1964875 -48.546707 -30.393797 -116.23846
7120000000 -30.191256 -147.57101 -1.1859825 -48.617764 -1.1962909 -48.616001 -30.437183 -116.48978
7130000000 -30.162077 -147.53479 -1.1847118 -48.680515 -1.1952286 -48.685226 -30.435614 -116.61272
7140000000 -30.169409 -147.25168 -1.1838955 -48.753208 -1.1954559 -48.750076 -30.406628 -117.06792
7150000000 -30.202192 -147.26273 -1.1846514 -48.825737 -1.1946852 -48.822414 -30.377459 -117.64918
7160000000 -30.227345 -147.08211 -1.1845255 -48.889877 -1.1940708 -48.891544 -30.303677 -118.02307
7170000000 -30.269718 -147.26108 -1.1833471 -48.954014 -1.1931617 -48.950489 -30.273323 -118.56928
7180000000 -30.291061 -147.30766 -1.1830198 -49.015202 -1.1934905 -49.010193 -30.241346 -118.91186
7190000000 -30.323854 -147.42429 -1.1830548 -49.079708 -1.1928071 -49.076397 -30.182604 -119.23414
7200000000 -30.292669 -147.52696 -1.183095 -49.142963 -1.1923131 -49.144016 -30.189859 -119.38065
7210000000 -30.252184 -147.42351 -1.1831439 -49.21172 -1.1926721 -49.206738 -30.175577 -119.63406
7220000000 -30.175261 -147.29208 -1.183134 -49.278526 -1.1918219 -49.280872 -30.168472 -119.70817
7230000000 -30.129696 -147.34703 -1.1836654 -49.352898 -1.1924354 -49.34684 -30.174889 -119.73992
7240000000 -30.06513 -147.40445 -1.1826007 -49.424496 -1.1920525 -49.423084 -30.17305 -119.77308
7250000000 -30.049 -147.62755 -1.1808915 -49.495461 -1.1916312 -49.488544 -30.188059 -119.93792
7260000000 -30.038841 -147.82831 -1.1815306 -49.560555 -1.1911125 -49.558762 -30.159107 -120.39568
7270000000 -30.028006 -147.98747 -1.1821895 -49.626942 -1.1912143 -49.621605 -30.170046 -120.73773
7280000000 -30.024961 -148.11368 -1.1814024 -49.69334 -1.1911401 -49.687878 -30.181686 -121.3261
7290000000 -30.022295 -148.32797 -1.1822928 -49.759357 -1.1916149 -49.752304 -30.158777 -121.73161
7300000000 -30.03092 -148.33847 -1.18132 -49.817554 -1.1902581 -49.818157 -30.176044 -121.92879
7310000000 -30.063509 -148.42738 -1.1812047 -49.8871 -1.1912395 -49.88393 -30.131611 -122.2845
7320000000 -30.069626 -148.28526 -1.180495 -49.955215 -1.1900821 -49.952705 -30.141336 -122.23721
7330000000 -30.048964 -148.18259 -1.1795551 -50.028038 -1.1899065 -50.019424 -30.126932 -122.24382
7340000000 -30.066406 -148.09021 -1.17874 -50.101509 -1.1903024 -50.088741 -30.107607 -122.02809
7350000000 -30.033966 -147.871 -1.1785907 -50.158966 -1.1901526 -50.162827 -30.135338 -122.19511
7360000000 -29.999781 -147.85783 -1.1786979 -50.231121 -1.1894288 -50.222027 -30.180433 -122.33761
7370000000 -29.985077 -147.71564 -1.1791096 -50.302849 -1.1895081 -50.291378 -30.18293 -122.33564
7380000000 -29.970396 -147.79439 -1.1787176 -50.36446 -1.1890346 -50.360573 -30.205639 -122.60181
7390000000 -29.975494 -147.73196 -1.1786711 -50.430824 -1.1887236 -50.425381 -30.220287 -123.0794
7400000000 -29.956596 -147.59538 -1.179081 -50.500271 -1.1888318 -50.493 -30.246387 -123.45281
7410000000 -29.932802 -147.70271 -1.178556 -50.557583 -1.1880858 -50.562035 -30.243881 -123.7489
7420000000 -29.912718 -147.53734 -1.178118 -50.63187 -1.1881313 -50.624809 -30.225376 -124.21912
7430000000 -29.883091 -147.58313 -1.1779095 -50.694225 -1.1867832 -50.696423 -30.204304 -124.54063
7440000000 -29.867485 -147.44737 -1.1769236 -50.763363 -1.1866564 -50.76226 -30.170067 -124.836
7450000000 -29.884336 -147.33469 -1.1761743 -50.834225 -1.185611 -50.831696 -30.127501 -125.05787
7460000000 -29.912209 -147.4599 -1.1760043 -50.895611 -1.1855253 -50.896095 -30.077517 -125.10295
7470000000 -29.930428 -147.65779 -1.1753001 -50.964741 -1.1855783 -50.961185 -30.022793 -125.03331
7480000000 -29.931067 -147.94427 -1.1754674 -51.033218 -1.1851118 -51.026501 -29.994715 -125.16446
7490000000 -29.92626 -148.21884 -1.1753198 -51.093189 -1.1850969 -51.094059 -30.000555 -125.32296
7500000000 -29.892662 -148.39928 -1.1753744 -51.158386 -1.1849051 -51.154045 -30.034323 -125.60864
7510000000 -29.855564 -148.33943 -1.1753398 -51.227543 -1.1849717 -51.224464 -30.054144 -125.90688
7520000000 -29.780914 -148.40616 -1.175308 -51.29306 -1.18441 -51.289436 -30.1106 -126.07338
7530000000 -29.761532 -148.31514 -1.1741996 -51.366589 -1.1833261 -51.35865 -30.131531 -126.34076
7540000000 -29.731384 -148.31601 -1.1748153 -51.438694 -1.1826823 -51.431953 -30.13604 -126.41353
7550000000 -29.754696 -148.44363 -1.1732787 -51.504841 -1.1820817 -51.504784 -30.122931 -126.61163
7560000000 -29.78121 -148.24075 -1.1712751 -51.576199 -1.1815479 -51.568703 -30.083254 -126.77263
7570000000 -29.79199 -148.15216 -1.170709 -51.641434 -1.1813596 -51.637119 -30.066717 -126.94633
7580000000 -29.797186 -148.27106 -1.1709611 -51.708729 -1.1809825 -51.699661 -30.080832 -127.18415
7590000000 -29.823179 -148.29305 -1.1712906 -51.76881 -1.1803533 -51.768707 -30.042812 -127.48605
7600000000 -29.857283 -148.30113 -1.1702887 -51.83696 -1.1800768 -51.830635 -30.05023 -127.62421
7610000000 -29.841665 -148.3918 -1.1699023 -51.900764 -1.1795306 -51.893578 -30.072491 -127.8296
7620000000 -29.807571 -148.33293 -1.1700143 -51.973347 -1.1789696 -51.966248 -30.088882 -127.86739
7630000000 -29.751179 -148.11676 -1.1703887 -52.043232 -1.1789149 -52.034443 -30.120689 -128.09474
7640000000 -29.668615 -147.93704 -1.1697614 -52.114891 -1.1793774 -52.107731 -30.152683 -128.29193
7650000000 -29.621996 -148.08391 -1.1704273 -52.1828 -1.1798224 -52.181465 -30.175425 -128.76039
7660000000 -29.637959 -147.80833 -1.1695615 -52.25375 -1.1796988 -52.254074 -30.175858 -129.12265
7670000000 -29.666265 -148.04025 -1.1687543 -52.322117 -1.1787343 -52.320698 -30.173489 -129.35741
7680000000 -29.683298 -148.04964 -1.1680599 -52.398048 -1.1780317 -52.380253 -30.163074 -129.76407
7690000000 -29.710436 -148.34712 -1.1684908 -52.454117 -1.1771562 -52.449123 -30.159803 -130.3644
7700000000 -29.708654 -148.68073 -1.1677198 -52.514179 -1.1776295 -52.50919 -30.125423 -130.67461
7710000000 -29.727318 -148.94867 -1.1676991 -52.576447 -1.1771314 -52.576153 -30.162283 -131.05946
7720000000 -29.729549 -148.80901 -1.1665971 -52.646236 -1.1763711 -52.636253 -30.189548 -131.2132
7730000000 -29.716192 -148.75052 -1.1664939 -52.708076 -1.175598 -52.713253 -30.193144 -131.22139
7740000000 -29.727209 -148.46858 -1.1655972 -52.784306 -1.1755159 -52.77639 -30.225075 -131.31046
7750000000 -29.717222 -148.37856 -1.1652706 -52.856026 -1.1751753 -52.8442 -30.228046 -131.13086
7760000000 -29.732471 -148.23186 -1.1646935 -52.92215 -1.1734401 -52.914562 -30.239023 -130.92671
7770000000 -29.750786 -148.2379 -1.165038 -52.983116 -1.1740245 -52.986618 -30.252853 -130.93309
7780000000 -29.771465 -148.28943 -1.1645621 -53.057762 -1.1735476 -53.057632 -30.262617 -130.90634
7790000000 -29.798071 -148.48927 -1.164225 -53.122955 -1.1734506 -53.121426 -30.257643 -130.86652
7800000000 -29.849512 -148.59886 -1.1629753 -53.182404 -1.1723017 -53.18306 -30.282013 -131.02675
7810000000 -29.816898 -148.78105 -1.1641133 -53.254025 -1.1726478 -53.248653 -30.261244 -131.34268
7820000000 -29.779713 -148.84496 -1.1629661 -53.317776 -1.1719562 -53.31995 -30.267424 -131.64868
7830000000 -29.746567 -149.05107 -1.1630027 -53.390194 -1.1720924 -53.385323 -30.28636 -131.9778
7840000000 -29.712145 -148.97559 -1.1625686 -53.456467 -1.1708409 -53.453995 -30.302837 -132.39658
7850000000 -29.690359 -148.72017 -1.1613705 -53.531872 -1.1709354 -53.516277 -30.333305 -132.58949
7860000000 -29.673517 -148.4968 -1.1610979 -53.598198 -1.1708721 -53.589104 -30.336651 -132.94347
7870000000 -29.661186 -148.18723 -1.1610765 -53.661438 -1.1689451 -53.658741 -30.369993 -133.0722
7880000000 -29.719923 -148.30228 -1.159956 -53.732075 -1.1685616 -53.725567 -30.326777 -133.10493
7890000000 -29.730007 -148.38506 -1.1590736 -53.800846 -1.1681141 -53.795158 -30.317606 -133.07201
7900000000 -29.779524 -148.42012 -1.1581467 -53.866592 -1.1677482 -53.857918 -30.340664 -133.26884
7910000000 -29.78227 -148.62483 -1.1589975 -53.930729 -1.1686596 -53.927372 -30.412155 -133.58572
7920000000 -29.786922 -148.43814 -1.158695 -53.99371 -1.1682022 -53.996803 -30.448929 -134.22041
7930000000 -29.78801 -148.39655 -1.1577486 -54.063614 -1.1684996 -54.060513 -30.517229 -134.77698
7940000000 -29.751713 -148.59166 -1.1576787 -54.132732 -1.168649 -54.12701 -30.548269 -135.40219
7950000000 -29.757534 -148.63185 -1.1580815 -54.199497 -1.1672633 -54.196632 -30.561407 -135.84973
7960000000 -29.786165 -148.4576 -1.1577939 -54.272678 -1.1667824 -54.263741 -30.564558 -136.18964
7970000000 -29.823807 -148.25049 -1.1570113 -54.341354 -1.1663594 -54.336029 -30.553307 -136.55637
7980000000 -29.854727 -148.3177 -1.1570481 -54.408039 -1.1642493 -54.399467 -30.553356 -136.66632
7990000000 -29.870697 -148.24277 -1.155738 -54.474209 -1.1646521 -54.469303 -30.509001 -136.71812
8000000000 -29.904831 -148.22772 -1.1546849 -54.539768 -1.1639657 -54.533981 -30.528082 -136.80293
8010000000 -29.913942 -148.35872 -1.1549953 -54.604706 -1.1643549 -54.603523 -30.528307 -137.10577
8020000000 -29.934662 -148.31273 -1.1546235 -54.67321 -1.1643827 -54.667332 -30.538059 -137.31021
8030000000 -29.915327 -148.14143 -1.1548669 -54.74614 -1.164273 -54.740582 -30.548859 -137.23744
8040000000 -29.916622 -147.9303 -1.1538432 -54.812069 -1.1637187 -54.810741 -30.555042 -137.19514
8050000000 -29.897505 -147.96201 -1.1537269 -54.884716 -1.163934 -54.879074 -30.582508 -137.56827
8060000000 -29.901163 -148.01274 -1.1535082 -54.953121 -1.1629553 -54.951008 -30.592991 -137.66266
8070000000 -29.893002 -148.19772 -1.154124 -55.025879 -1.1621684 -55.020157 -30.574057 -138.00673
8080000000 -29.913841 -148.1889 -1.1538681 -55.093639 -1.1625115 -55.086628 -30.575596 -138.62061
8090000000 -29.924101 -148.37769 -1.1532115 -55.161297 -1.1620325 -55.155361 -30.57729 -138.90886
8100000000 -29.921907 -148.46024 -1.153199 -55.228886 -1.1621941 -55.218052 -30.600292 -139.2851
8110000000 -29.941273 -148.46916 -1.1525313 -55.295643 -1.1616404 -55.287746 -30.61871 -139.80165
8120000000 -29.962152 -148.4395 -1.1523119 -55.360897 -1.1605159 -55.351936 -30.630426 -140.11874
8130000000 -29.971788 -148.38272 -1.1515769 -55.429924 -1.1606965 -55.424072 -30.650053 -140.22632
8140000000 -30.009661 -148.24599 -1.1512444 -55.49366 -1.1604902 -55.488594 -30.695648 -140.5574
8150000000 -30.043238 -147.92073 -1.1511139 -55.562691 -1.1606404 -55.556553 -30.740065 -140.65617
8160000000 -30.047409 -147.47865 -1.1506172 -55.628689 -1.1595492 -55.625893 -30.817465 -141.06183
8170000000 -30.069759 -147.3096 -1.1509306 -55.695492 -1.1594251 -55.694584 -30.878193 -141.28976
8180000000 -30.145485 -146.99483 -1.1503443 -55.768738 -1.1593122 -55.767632 -30.915245 -141.29642
8190000000 -30.184389 -147.03526 -1.150041 -55.836586 -1.159341 -55.832226 -30.915955 -141.64989
8200000000 -30.239481 -147.06233 -1.1491451 -55.907471 -1.1586016 -55.904716 -30.932388 -141.60797
8210000000 -30.277933 -147.05063 -1.1484443 -55.973682 -1.15795 -55.970524 -30.909733 -141.90062
8220000000 -30.291224 -147.28424 -1.1474088 -56.044582 -1.1574262 -56.034241 -30.888885 -142.14424
8230000000 -30.276983 -147.43661 -1.147835 -56.11409 -1.1573347 -56.108284 -30.87608 -142.35867
8240000000 -30.263103 -147.75119 -1.1475798 -56.178669 -1.1571728 -56.170723 -30.844154 -142.67021
8250000000 -30.246994 -147.64719 -1.1469085 -56.245941 -1.1557454 -56.24176 -30.828428 -142.77397
8260000000 -30.214405 -147.5074 -1.1469517 -56.315208 -1.1558526 -56.312298 -30.822557 -143.08775
8270000000 -30.199856 -147.18951 -1.1454724 -56.379219 -1.1553742 -56.37925 -30.863758 -143.40071
8280000000 -30.210623 -147.0995 -1.1456019 -56.455269 -1.1549821 -56.451233 -30.841335 -143.23538
8290000000 -30.252674 -147.03165 -1.1448026 -56.523476 -1.1548336 -56.514675 -30.872297 -143.29068
8300000000 -30.314623 -146.92979 -1.1439751 -56.588509 -1.1541727 -56.587337 -30.897299 -143.32697
8310000000 -30.38801 -147.08954 -1.1439984 -56.656921 -1.1532199 -56.651173 -30.937538 -143.42642
8320000000 -30.456247 -147.20241 -1.143195 -56.726124 -1.1527392 -56.714596 -30.981251 -143.60625
8330000000 -30.477221 -147.45822 -1.1426204 -56.793026 -1.1529157 -56.787144 -31.026442 -143.90166
8340000000 -30.526512 -147.79564 -1.1426595 -56.858051 -1.1521118 -56.849945 -31.060825 -144.09895
8350000000 -30.545979 -148.00816 -1.1425612 -56.92524 -1.1520925 -56.924103 -31.069933 -144.54648
8360000000 -30.565952 -148.20869 -1.1421628 -56.995022 -1.1516055 -56.994953 -31.123333 -144.81659
8370000000 -30.574928 -148.09967 -1.1415308 -57.067375 -1.151263 -57.061157 -31.169439 -144.8698
8380000000 -30.568024 -147.99869 -1.1415086 -57.135284 -1.150246 -57.135391 -31.177017 -145.05724
8390000000 -30.579535 -148.04454 -1.1395849 -57.204159 -1.1498919 -57.203632 -31.189444 -145.1797
8400000000 -30.578238 -147.77187 -1.1400254 -57.274261 -1.1488671 -57.271839 -31.19511 -145.18553
8410000000 -30.619225 -147.81012 -1.1403072 -57.341194 -1.1489639 -57.337158 -31.207558 -145.40302
8420000000 -30.630653 -147.64085 -1.1391693 -57.410255 -1.1486285 -57.406647 -31.247646 -145.32013
8430000000 -30.676098 -147.49605 -1.1382898 -57.474834 -1.148242 -57.473309 -31.309475 -145.42639
8440000000 -30.706522 -147.35397 -1.1378454 -57.539974 -1.1479551 -57.539818 -31.353273 -145.60777
8450000000 -30.707727 -147.21724 -1.1384997 -57.612633 -1.1479632 -57.606644 -31.429707 -145.78345
8460000000 -30.722214 -147.24054 -1.137946 -57.677834 -1.1469443 -57.678509 -31.472191 -146.01332
8470000000 -30.791805 -147.18887 -1.137658 -57.748348 -1.1462967 -57.743008 -31.540056 -146.39259
8480000000 -30.848595 -147.20268 -1.1366588 -57.820969 -1.1457343 -57.815147 -31.587421 -146.78838
8490000000 -30.888901 -147.0916 -1.1361849 -57.890476 -1.1449642 -57.886215 -31.629185 -147.13768
8500000000 -30.915222 -147.14171 -1.1351699 -57.961212 -1.1450199 -57.956814 -31.641857 -147.55127
8510000000 -30.954576 -147.14659 -1.1354781 -58.023926 -1.1443316 -58.023483 -31.632915 -147.75607
8520000000 -30.964062 -147.15457 -1.1341994 -58.094429 -1.1442722 -58.092522 -31.653942 -148.21146
8530000000 -31.006241 -147.29024 -1.1342971 -58.161713 -1.1438696 -58.158051 -31.669619 -148.4825
8540000000 -31.038664 -147.15855 -1.1330782 -58.228477 -1.1435419 -58.226723 -31.687958 -148.87468
8550000000 -31.090199 -147.23584 -1.1337134 -58.295841 -1.1434102 -58.287209 -31.736591 -148.92984
8560000000 -31.099466 -146.81805 -1.1327201 -58.363865 -1.1423678 -58.360424 -31.804428 -149.1097
8570000000 -31.126764 -146.61494 -1.1332563 -58.430622 -1.1417221 -58.427685 -31.843538 -149.1591
8580000000 -31.164942 -146.55775 -1.1328942 -58.504757 -1.1418928 -58.497177 -31.877131 -149.12517
8590000000 -31.25318 -146.43375 -1.1323837 -58.573967 -1.1412032 -58.564442 -31.932474 -148.97403
8600000000 -31.345322 -146.26735 -1.1320263 -58.644318 -1.1411668 -58.634079 -31.997501 -148.84274
8610000000 -31.406206 -146.22191 -1.1318885 -58.713009 -1.1406326 -58.70829 -32.051624 -148.67458
8620000000 -31.471869 -146.40001 -1.1303234 -58.780067 -1.1401631 -58.773808 -32.115093 -148.54277
8630000000 -31.485861 -146.57423 -1.1302619 -58.849949 -1.1402937 -58.843494 -32.120476 -148.75412
8640000000 -31.486309 -147.02307 -1.1307952 -58.915668 -1.1395354 -58.908878 -32.172314 -149.11609
8650000000 -31.50399 -147.0724 -1.1303127 -58.978622 -1.139342 -58.97887 -32.200813 -149.44466
8660000000 -31.481529 -146.7514 -1.1294976 -59.053535 -1.1384748 -59.052929 -32.246433 -149.60461
8670000000 -31.49968 -146.42616 -1.1294335 -59.124611 -1.1376345 -59.118355 -32.298813 -150.03253
8680000000 -31.480972 -146.19145 -1.1285462 -59.192604 -1.1376119 -59.183044 -32.306725 -150.30267
8690000000 -31.504766 -145.98354 -1.1284157 -59.26226 -1.1378316 -59.256706 -32.352386 -150.61617
8700000000 -31.548122 -145.85445 -1.1280314 -59.33403 -1.1369015 -59.323624 -32.374912 -151.0473
8710000000 -31.608932 -145.8101 -1.1275266 -59.399929 -1.1360575 -59.392586 -32.459648 -151.20215
8720000000 -31.695801 -145.80127 -1.1271719 -59.468792 -1.136315 -59.459347 -32.48996 -151.3802
8730000000 -31.773613 -145.68848 -1.1271048 -59.539162 -1.1355635 -59.527618 -32.560307 -151.52693
8740000000 -31.830153 -145.65495 -1.1266196 -59.604431 -1.1351207 -59.600853 -32.634033 -151.64943
8750000000 -31.889565 -146.04797 -1.1257571 -59.6749 -1.135415 -59.661327 -32.708809 -152.03387
8760000000 -31.952047 -146.039 -1.1251308 -59.737041 -1.1349039 -59.734241 -32.77663 -152.24968
8770000000 -32.023399 -146.17372 -1.1248628 -59.808033 -1.1347221 -59.803333 -32.817001 -152.54163
8780000000 -32.091457 -146.05736 -1.1239191 -59.879478 -1.1336193 -59.870773 -32.887737 -152.69522
8790000000 -32.12064 -146.03464 -1.1237193 -59.949898 -1.1337305 -59.940907 -32.914978 -153.02992
8800000000 -32.149433 -145.85492 -1.1236173 -60.018436 -1.1328121 -60.011005 -32.980885 -153.07082
8810000000 -32.181591 -145.7252 -1.1231322 -60.085743 -1.1316152 -60.080975 -33.009224 -153.28249
8820000000 -32.208858 -145.42499 -1.1228385 -60.160053 -1.1314548 -60.153866 -33.04155 -153.44643
8830000000 -32.256805 -145.44553 -1.1231343 -60.226227 -1.1307609 -60.217442 -33.069115 -153.77911
8840000000 -32.349354 -145.2215 -1.1216744 -60.290615 -1.131115 -60.291439 -33.128971 -154.16727
8850000000 -32.391369 -145.02406 -1.1213225 -60.361393 -1.1310484 -60.355991 -33.173756 -154.48454
8860000000 -32.464619 -145.22061 -1.121963 -60.426815 -1.1299419 -60.420898 -33.231979 -154.80164
8870000000 -32.541088 -145.68217 -1.1210437 -60.493134 -1.1303661 -60.489971 -33.242435 -155.07765
8880000000 -32.629757 -145.85579 -1.1209596 -60.560093 -1.1299798 -60.560863 -33.288326 -155.07867
8890000000 -32.703434 -145.92685 -1.1199093 -60.635605 -1.1293137 -60.634575 -33.367207 -154.9389
8900000000 -32.817024 -145.979 -1.1189821 -60.705486 -1.129732 -60.699207 -33.414322 -155.01006
8910000000 -32.874596 -145.8192 -1.1189817 -60.776798 -1.1288723 -60.771301 -33.478161 -154.85237
8920000000 -32.94363 -145.95309 -1.1182425 -60.847397 -1.1282667 -60.836586 -33.565144 -155.23555
8930000000 -32.987823 -146.20924 -1.1181866 -60.918499 -1.1269145 -60.908504 -33.653763 -155.34627
8940000000 -33.079964 -146.61044 -1.1184874 -60.98275 -1.1274834 -60.97472 -33.737793 -155.86172
8950000000 -33.163105 -146.74129 -1.1177551 -61.048855 -1.1266944 -61.038239 -33.831654 -156.19569
8960000000 -33.19479 -146.51146 -1.116364 -61.118835 -1.1270589 -61.10667 -33.943348 -156.24425
8970000000 -33.237114 -146.25198 -1.1164118 -61.185081 -1.1256282 -61.17347 -34.009315 -156.76128
8980000000 -33.253639 -146.09404 -1.1153588 -61.252106 -1.1257044 -61.245789 -34.071568 -157.27032
8990000000 -33.312801 -145.83922 -1.115381 -61.322655 -1.1253767 -61.315727 -34.187359 -157.53996
9000000000 -33.352989 -145.62263 -1.1152631 -61.39069 -1.1245979 -61.38599 -34.218033 -157.9743
9010000000 -33.48597 -145.0072 -1.1144985 -61.459503 -1.1242652 -61.451778 -34.266228 -158.20189
9020000000 -33.570267 -144.63055 -1.1140171 -61.530811 -1.1237136 -61.521523 -34.269791 -157.94746
9030000000 -33.643093 -144.15494 -1.1130707 -61.599564 -1.1224476 -61.590076 -34.33894 -158.02711
9040000000 -33.728123 -144.14615 -1.1135782 -61.667038 -1.1215793 -61.661507 -34.357124 -157.97357
9050000000 -33.835342 -144.32198 -1.1126175 -61.735546 -1.1223786 -61.729633 -34.416374 -158.02176
9060000000 -33.918434 -144.47772 -1.1125932 -61.803967 -1.1213815 -61.798077 -34.503445 -157.93695
9070000000 -34.012257 -144.35396 -1.112353 -61.873272 -1.1210947 -61.867287 -34.52787 -157.9073
9080000000 -34.075321 -144.35347 -1.111176 -61.94294 -1.120196 -61.935699 -34.630779 -158.19618
9090000000 -34.120979 -144.07895 -1.1107497 -62.014744 -1.1205652 -62.004452 -34.752998 -158.47441
9100000000 -34.181911 -144.27388 -1.1110158 -62.08601 -1.1196282 -62.076893 -34.832279 -158.72632
9110000000 -34.269131 -144.37119 -1.1098896 -62.147713 -1.119251 -62.143398 -34.899891 -158.97345
9120000000 -34.402271 -144.2368 -1.109408 -62.221489 -1.1182349 -62.211967 -34.972591 -159.33774
9130000000 -34.540104 -144.46574 -1.1083231 -62.286789 -1.1177483 -62.278416 -35.023857 -159.8522
9140000000 -34.663269 -144.49225 -1.1092232 -62.356377 -1.116304 -62.344978 -35.088371 -160.1879
9150000000 -34.757843 -144.63785 -1.1076612 -62.426113 -1.1160874 -62.416832 -35.143124 -160.22046
9160000000 -34.827175 -144.78752 -1.1077945 -62.493439 -1.1158441 -62.483807 -35.150024 -160.27689
9170000000 -34.913605 -144.6478 -1.1079665 -62.567524 -1.1155369 -62.558651 -35.183838 -159.99315
9180000000 -34.998089 -144.75766 -1.1070372 -62.635342 -1.1153816 -62.630424 -35.276535 -159.91084
9190000000 -35.061874 -144.09254 -1.1068989 -62.70639 -1.1152126 -62.701035 -35.367119 -159.54921
9200000000 -35.126476 -143.86823 -1.1064084 -62.778038 -1.1153866 -62.769657 -35.508831 -159.38753
9210000000 -35.170841 -143.54524 -1.105921 -62.850296 -1.1145833 -62.838234 -35.583706 -159.38962
9220000000 -35.250286 -143.75687 -1.1049775 -62.917133 -1.1142683 -62.90937 -35.671902 -159.45869
9230000000 -35.351944 -143.32573 -1.1055144 -62.986961 -1.1136858 -62.977673 -35.742809 -159.72911
9240000000 -35.444038 -143.0625 -1.1040472 -63.053719 -1.11333 -63.046658 -35.867603 -159.74687
9250000000 -35.557983 -142.85843 -1.1037931 -63.120007 -1.113308 -63.117012 -36.027493 -160.02213
9260000000 -35.635624 -142.64423 -1.1040214 -63.194489 -1.1124496 -63.187531 -36.129013 -160.10446
9270000000 -35.769573 -142.5948 -1.1026268 -63.260571 -1.1115823 -63.254658 -36.254406 -160.5195
9280000000 -35.846458 -142.60609 -1.1024382 -63.328491 -1.1120945 -63.325935 -36.373268 -160.73343
9290000000 -35.935711 -142.40617 -1.1015878 -63.403854 -1.1108744 -63.396793 -36.469315 -160.89363
9300000000 -36.117195 -142.32928 -1.1022173 -63.471085 -1.1111445 -63.469589 -36.535847 -161.14667
9310000000 -36.26907 -142.19572 -1.1018714 -63.542206 -1.111513 -63.535904 -36.607346 -161.36555
9320000000 -36.383038 -141.49098 -1.1010858 -63.605419 -1.1107301 -63.603153 -36.734558 -161.31952
9330000000 -36.534233 -141.76286 -1.1012926 -63.678974 -1.1105739 -63.671204 -36.884918 -161.52444
9340000000 -36.6548 -141.88237 -1.1012379 -63.750549 -1.11013 -63.741753 -37.035404 -161.46445
9350000000 -36.830448 -141.70647 -1.1007422 -63.820839 -1.109406 -63.807899 -37.224609 -161.07617
9360000000 -36.968548 -141.51277 -1.1002473 -63.891155 -1.1085539 -63.878387 -37.404984 -161.13675
9370000000 -37.089989 -140.93776 -1.0998751 -63.958206 -1.1080655 -63.944691 -37.686569 -161.51923
9380000000 -37.206642 -140.25731 -1.0993283 -64.02459 -1.106788 -64.01828 -37.862041 -161.60855
9390000000 -37.323776 -140.14859 -1.0980074 -64.097832 -1.1071321 -64.087341 -38.073273 -162.07243
9400000000 -37.506981 -139.73567 -1.0972306 -64.165276 -1.1070296 -64.156212 -38.241768 -162.53441
9410000000 -37.629311 -139.09346 -1.0971758 -64.232285 -1.1065576 -64.22599 -38.342865 -162.97119
9420000000 -37.855927 -138.16176 -1.0961826 -64.303207 -1.1050689 -64.294548 -38.394169 -163.43079
9430000000 -38.025967 -137.43921 -1.0956975 -64.368523 -1.1054612 -64.366333 -38.495258 -163.80518
9440000000 -38.130695 -136.73943 -1.0952065 -64.441521 -1.1045935 -64.434479 -38.612053 -163.84047
9450000000 -38.253769 -136.25485 -1.0948001 -64.511932 -1.1035858 -64.500137 -38.795387 -163.36775
9460000000 -38.468864 -136.10977 -1.0952084 -64.578705 -1.1040307 -64.572517 -38.900986 -163.72598
9470000000 -38.631374 -136.09535 -1.0948204 -64.648705 -1.103456 -64.641861 -39.068161 -163.16827
9480000000 -38.774441 -135.4686 -1.0949823 -64.71463 -1.1020693 -64.714325 -39.276173 -162.94032
9490000000 -38.890659 -135.14207 -1.0940627 -64.786636 -1.1025543 -64.781731 -39.459564 -163.00691
9500000000 -39.032555 -135.64474 -1.0942562 -64.860329 -1.1025083 -64.846283 -39.658791 -163.09769
9510000000 -39.116875 -135.88953 -1.0941919 -64.926804 -1.1018801 -64.923203 -39.802853 -163.22562
9520000000 -39.210125 -135.19943 -1.0932845 -65.001747 -1.1020739 -64.990593 -40.0042 -163.90489
9530000000 -39.3899 -134.83847 -1.0920118 -65.069611 -1.1017543 -65.064102 -40.187092 -163.85191
9540000000 -39.625191 -133.96754 -1.0922834 -65.141205 -1.1019571 -65.138565 -40.332882 -164.43813
9550000000 -39.792583 -133.75742 -1.0915834 -65.212318 -1.1009016 -65.208366 -40.483589 -164.42473
9560000000 -40.020756 -133.47124 -1.0917928 -65.285339 -1.1006888 -65.275185 -40.576046 -164.97379
9570000000 -40.119606 -132.94243 -1.0911357 -65.353821 -1.1000695 -65.348206 -40.766148 -164.77731
9580000000 -40.339046 -132.34465 -1.0911222 -65.422234 -1.1004064 -65.417313 -41.076366 -164.38446
9590000000 -40.513767 -131.88423 -1.0902829 -65.491241 -1.0999027 -65.490349 -41.352493 -163.52303
9600000000 -40.640968 -130.86234 -1.0902007 -65.564774 -1.0987005 -65.560013 -41.51461 -162.95483
9610000000 -40.819328 -129.8031 -1.0893307 -65.639305 -1.0985174 -65.624466 -41.807407 -162.95721
9620000000 -40.932667 -128.75822 -1.0894339 -65.707657 -1.0979204 -65.700829 -42.156162 -162.57687
9630000000 -41.085686 -128.40331 -1.0898098 -65.77771 -1.0977818 -65.770866 -42.502426 -162.54054
9640000000 -41.342384 -127.52885 -1.0887004 -65.846252 -1.096754 -65.840996 -42.845905 -162.34125
9650000000 -41.646019 -126.00597 -1.0880432 -65.919197 -1.0960007 -65.916405 -43.184204 -162.52051
9660000000 -41.900841 -125.20166 -1.0869223 -65.992348 -1.0967669 -65.98262 -43.448421 -162.59186
9670000000 -42.194122 -123.80229 -1.086533 -66.060791 -1.0959187 -66.050957 -43.925743 -162.81482
9680000000 -42.503761 -123.58708 -1.0873595 -66.12545 -1.0962079 -66.120506 -44.377914 -163.51981
9690000000 -42.960857 -123.11681 -1.0868721 -66.198532 -1.0956525 -66.191032 -44.736038 -164.19493
9700000000 -43.34647 -121.86102 -1.08638 -66.262596 -1.0956749 -66.257523 -45.092957 -163.90514
9710000000 -43.686016 -120.3107 -1.0860906 -66.333443 -1.0957102 -66.328583 -45.482719 -163.53516
9720000000 -43.876186 -118.80919 -1.0859373 -66.405769 -1.0946915 -66.40197 -45.907139 -162.94994
9730000000 -44.138359 -117.65891 -1.0858186 -66.476387 -1.0947478 -66.472244 -46.331646 -162.67805
9740000000 -44.350136 -117.27353 -1.0860969 -66.548622 -1.0944827 -66.543762 -46.733658 -162.46153
9750000000 -44.716923 -116.0003 -1.0849333 -66.615334 -1.0942142 -66.611977 -47.226246 -161.97371
9760000000 -45.045479 -116.25941 -1.0847707 -66.68586 -1.0936944 -66.677765 -47.735065 -162.12772
9770000000 -45.282227 -115.74586 -1.0851616 -66.750725 -1.0934384 -66.746819 -48.14769 -162.89279
9780000000 -45.303822 -115.69125 -1.0849642 -66.818077 -1.092322 -66.814201 -48.820038 -162.27876
9790000000 -45.524086 -114.26492 -1.0852679 -66.886208 -1.0922375 -66.884117 -49.30415 -162.42973
9800000000 -45.587711 -113.8927 -1.0838484 -66.953255 -1.0925866 -66.95079 -49.792976 -162.07942
9810000000 -45.762253 -111.11935 -1.0843498 -67.0271 -1.09207 -67.024399 -50.356377 -162.92007
9820000000 -45.868912 -107.96843 -1.0832556 -67.091553 -1.0917232 -67.08889 -51.022926 -162.27979
9830000000 -45.835712 -104.73748 -1.0827168 -67.166176 -1.0923008 -67.156105 -51.62656 -161.29558
9840000000 -45.883385 -100.01522 -1.0825176 -67.237015 -1.0913148 -67.226952 -52.596241 -159.00691
9850000000 -45.826088 -95.622543 -1.0820792 -67.304947 -1.0906426 -67.299698 -53.766182 -157.35406
9860000000 -45.909492 -91.773682 -1.0822121 -67.374916 -1.0900301 -67.369316 -55.43552 -157.34241
9870000000 -46.077564 -87.544868 -1.0810674 -67.441689 -1.089702 -67.437256 -57.67057 -155.39668
9880000000 -46.320217 -83.088516 -1.0811374 -67.51503 -1.0895373 -67.511658 -60.148895 -152.59222
9890000000 -46.454288 -79.381569 -1.0808632 -67.586319 -1.0889412 -67.578743 -63.613926 -151.36227
9900000000 -46.676235 -77.058273 -1.0804821 -67.652611 -1.0889775 -67.649498 -66.961609 -154.58719
9910000000 -46.995995 -73.467461 -1.0806613 -67.72187 -1.0891252 -67.723358 -76.002563 -148.59572
9920000000 -47.05666 -70.967972 -1.0799098 -67.797104 -1.087988 -67.784348 -75.906181 30.304003
9930000000 -47.435688 -67.606766 -1.0795646 -67.859665 -1.0874683 -67.856567 -68.791542 14.082035
9940000000 -47.427608 -63.38176 -1.0787246 -67.93264 -1.0880003 -67.927109 -65.692802 7.4257555
9950000000 -47.418659 -59.436901 -1.0781946 -68.000114 -1.0873802 -67.998123 -63.791176 9.1893663
9960000000 -47.212776 -56.80938 -1.0783938 -68.070694 -1.0874842 -68.065109 -61.648552 7.0339217
9970000000 -47.175167 -55.088852 -1.0779667 -68.144371 -1.0873917 -68.137085 -59.446285 -2.9477341
9980000000 -47.103699 -51.556553 -1.0766636 -68.211075 -1.0873159 -68.209625 -57.158184 0.55966866
9990000000 -46.748859 -49.189575 -1.077687 -68.289574 -1.086019 -68.278389 -55.345554 -2.2665327
10000000000 -46.488102 -46.117733 -1.0778718 -68.357285 -1.0852267 -68.349228 -53.442677 0.15756956
10010000000 -46.306252 -44.091259 -1.0769436 -68.424088 -1.0852027 -68.418503 -52.315037 2.5605829
10020000000 -45.964645 -42.945953 -1.0771048 -68.494858 -1.0850415 -68.490074 -51.684605 2.8747842
10030000000 -45.906723 -40.589451 -1.076329 -68.565987 -1.0847013 -68.559135 -50.72353 6.4833422
10040000000 -45.840919 -38.090733 -1.076197 -68.639282 -1.0842088 -68.632973 -50.239285 7.1148129
10050000000 -45.565144 -35.511501 -1.0747383 -68.711052 -1.0847441 -68.702858 -49.684963 9.1579933
10060000000 -45.437176 -32.858562 -1.0756233 -68.777145 -1.0842966 -68.774994 -49.347618 10.782045
10070000000 -45.070007 -31.412355 -1.0749372 -68.849487 -1.0831913 -68.847641 -48.787693 10.549631
10080000000 -44.773155 -30.185522 -1.0746919 -68.921715 -1.0827916 -68.91626 -48.315277 10.117286
10090000000 -44.527859 -28.406643 -1.074492 -68.994812 -1.0835274 -68.986702 -47.792583 9.1282339
10100000000 -44.266644 -26.197832 -1.0740739 -69.066093 -1.0824635 -69.058693 -47.088131 9.6425476
10110000000 -43.876141 -24.934082 -1.0735595 -69.138504 -1.0824498 -69.123734 -46.399864 8.4787188
10120000000 -43.387169 -23.467154 -1.0744376 -69.209572 -1.0820872 -69.201958 -45.663685 8.3201389
10130000000 -43.057514 -21.423788 -1.0734378 -69.278564 -1.0818015 -69.269859 -45.110401 8.7509003
10140000000 -42.689796 -20.105696 -1.0729539 -69.342896 -1.0821217 -69.341904 -44.436615 10.225895
10150000000 -42.402489 -18.248482 -1.0733153 -69.415878 -1.0813304 -69.414551 -43.970181 10.87105
10160000000 -42.08659 -16.181227 -1.0727452 -69.485573 -1.0814884 -69.482803 -43.491222 12.736123
10170000000 -41.757698 -14.176252 -1.0729053 -69.558495 -1.0809575 -69.551659 -43.110619 12.698613
10180000000 -41.404892 -12.867301 -1.0726962 -69.632645 -1.0810963 -69.628906 -42.62933 13.326114
10190000000 -41.127426 -11.487809 -1.0721686 -69.695335 -1.0803088 -69.696358 -42.306564 13.857261
10200000000 -40.993584 -10.493083 -1.0721103 -69.770195 -1.0806843 -69.764793 -42.087513 14.63424
10210000000 -40.807808 -9.2161045 -1.0716878 -69.843811 -1.0799087 -69.829483 -41.842335 14.759558
10220000000 -40.639256 -8.302927 -1.0710204 -69.911728 -1.0792831 -69.89959 -41.610394 14.695546
10230000000 -40.419525 -8.0778046 -1.0713191 -69.979355 -1.0786539 -69.969185 -41.278454 14.559403
10240000000 -40.125916 -8.4012966 -1.0711936 -70.046936 -1.0796273 -70.038208 -41.066456 13.337513
10250000000 -39.928078 -8.6137009 -1.0704807 -70.113518 -1.0789698 -70.114014 -40.877602 12.849992
10260000000 -39.663815 -8.7189159 -1.0706248 -70.185471 -1.0779707 -70.179771 -40.61731 12.868547
10270000000 -39.32135 -8.6634655 -1.0693378 -70.263947 -1.0789533 -70.255005 -40.442677 12.408698
10280000000 -39.116062 -8.4548168 -1.0692598 -70.336319 -1.0776844 -70.325439 -40.096634 13.244205
10290000000 -38.917545 -7.7601228 -1.0697786 -70.406311 -1.0771124 -70.401871 -39.831425 13.358676
10300000000 -38.670204 -6.9440079 -1.0687948 -70.47567 -1.077984 -70.468155 -39.627834 14.394974
10310000000 -38.632744 -6.4429331 -1.0690173 -70.550476 -1.0769712 -70.533531 -39.531963 15.110137
10320000000 -38.569847 -5.8400664 -1.0689057 -70.614899 -1.0776515 -70.606667 -39.351719 15.999784
10330000000 -38.448566 -4.6506619 -1.0677021 -70.683945 -1.077064 -70.676041 -39.284134 16.465807
10340000000 -38.369167 -4.0540447 -1.0677047 -70.753159 -1.0766895 -70.741661 -39.189316 16.552834
10350000000 -38.276226 -3.8419721 -1.0683095 -70.824806 -1.0761029 -70.813492 -39.115932 15.945577
10360000000 -38.199722 -3.3917089 -1.0687157 -70.897758 -1.0756223 -70.889465 -39.108147 15.394275
10370000000 -38.083046 -3.7780778 -1.0674733 -70.966751 -1.0758232 -70.960403 -39.013615 14.19945
10380000000 -37.974873 -3.0332608 -1.067153 -71.037216 -1.0758442 -71.031258 -38.859459 13.714189
10390000000 -37.735413 -3.1436534 -1.0670524 -71.104225 -1.075938 -71.100494 -38.646923 12.767779
10400000000 -37.63031 -2.2198682 -1.0670639 -71.180145 -1.0755987 -71.173889 -38.434917 12.210024
10410000000 -37.444054 -1.9106027 -1.0669676 -71.252419 -1.0755006 -71.251556 -38.181622 11.568943
10420000000 -37.32996 -1.3085694 -1.0666221 -71.323318 -1.0754476 -71.312958 -37.897095 11.599527
10430000000 -37.123222 -1.2621616 -1.0668677 -71.391174 -1.0753424 -71.382652 -37.685829 12.010449
10440000000 -37.008446 -1.0321634 -1.0669163 -71.466187 -1.0751472 -71.458122 -37.420448 11.964962
10450000000 -36.780369 -0.51813447 -1.0666333 -71.535561 -1.0748159 -71.530342 -37.162407 11.817554
10460000000 -36.622089 -0.23510318 -1.0659841 -71.609756 -1.0748918 -71.601158 -36.922142 11.945911
10470000000 -36.378139 -0.47675654 -1.0657648 -71.678772 -1.074978 -71.667137 -36.787209 12.375822
10480000000 -36.224804 -0.24311389 -1.0657743 -71.748253 -1.0747373 -71.7453 -36.700451 12.163465
10490000000 -35.979263 0.020120975 -1.0662227 -71.816116 -1.0741664 -71.812111 -36.474983 12.001121
10500000000 -35.83416 0.68782037 -1.0652229 -71.892464 -1.0739663 -71.888031 -36.319443 12.153689
10510000000 -35.679192 0.70178688 -1.0656215 -71.963028 -1.0739248 -71.951607 -36.170074 11.506065
10520000000 -35.532295 0.89422137 -1.0657668 -72.034782 -1.0732155 -72.025558 -35.924278 11.195277
10530000000 -35.396107 1.1463953 -1.0650667 -72.107773 -1.0733527 -72.096504 -35.706486 10.875319
10540000000 -35.274601 1.4157089 -1.0651101 -72.177734 -1.0732881 -72.167503 -35.551788 11.058145
10550000000 -35.152073 1.3883299 -1.0655326 -72.2537 -1.073422 -72.244217 -35.350014 11.288862
10560000000 -35.052399 1.933192 -1.0646496 -72.312775 -1.0739026 -72.31234 -35.246548 11.572292
10570000000 -34.961147 2.3101139 -1.0639713 -72.392586 -1.0733434 -72.378136 -35.130322 12.425435
10580000000 -34.845993 2.3805573 -1.0644389 -72.455803 -1.0732337 -72.447159 -35.026627 12.975414
10590000000 -34.784271 2.2732639 -1.0643185 -72.529625 -1.0717044 -72.516891 -34.950859 13.492566
10600000000 -34.721695 2.1506536 -1.0649056 -72.59407 -1.0717591 -72.588646 -34.889851 13.751771
10610000000 -34.664211 2.0090981 -1.0644022 -72.662773 -1.0719831 -72.657272 -34.830811 13.950827
10620000000 -34.613529 1.6156155 -1.0643182 -72.738548 -1.0722044 -72.72287 -34.716763 13.888967
10630000000 -34.512375 1.4935669 -1.0634887 -72.803993 -1.0718237 -72.797501 -34.667488 13.892613
10640000000 -34.385872 0.92810041 -1.0638608 -72.870056 -1.0729914 -72.863159 -34.586891 13.731441
10650000000 -34.236477 0.57842243 -1.0642173 -72.945992 -1.0723045 -72.934937 -34.469479 13.432444
10660000000 -34.062927 0.25704151 -1.0636207 -73.015854 -1.0738211 -73.008835 -34.343372 13.028926
10670000000 -33.903835 0.48634267 -1.0639124 -73.091324 -1.0729102 -73.08429 -34.224331 12.86669
10680000000 -33.798214 0.62992203 -1.0641991 -73.162323 -1.0727983 -73.15242 -34.123833 12.757286
10690000000 -33.633053 1.2133157 -1.0642252 -73.231705 -1.0724112 -73.224716 -33.982407 12.850833
10700000000 -33.536568 1.8726403 -1.0636673 -73.302742 -1.0724194 -73.299294 -33.873497 12.948948
10710000000 -33.434956 2.2178824 -1.0636581 -73.374054 -1.0725335 -73.368347 -33.752098 13.138909
10720000000 -33.367012 2.7046432 -1.0634524 -73.451218 -1.0715245 -73.443054 -33.637188 12.93798
10730000000 -33.341476 2.9372661 -1.062559 -73.520462 -1.0712241 -73.514885 -33.509766 12.670803
10740000000 -33.281219 3.3940704 -1.0632209 -73.587868 -1.0715461 -73.586205 -33.431816 12.488926
10750000000 -33.224216 3.5407414 -1.062592 -73.661201 -1.0712837 -73.65554 -33.345165 12.574117
10760000000 -33.164814 3.3420143 -1.0630668 -73.729637 -1.0713496 -73.726868 -33.294376 12.268883
10770000000 -33.081596 2.837467 -1.062435 -73.802727 -1.070911 -73.795708 -33.197853 11.791268
10780000000 -32.993126 2.7483401 -1.062428 -73.874443 -1.0711254 -73.868828 -33.101269 11.371564
10790000000 -32.906349 2.5403957 -1.0622855 -73.945427 -1.0707424 -73.93808 -33.000523 11.177804
10800000000 -32.753677 2.3533094 -1.0617312 -74.018143 -1.0704615 -74.014015 -32.856972 11.238217
10810000000 -32.67337 2.2937768 -1.0619209 -74.084145 -1.0706105 -74.077904 -32.717781 11.47473
10820000000 -32.546585 2.2047961 -1.0609895 -74.15831 -1.069822 -74.157471 -32.572239 11.762825
10830000000 -32.437325 2.2564814 -1.061289 -74.232018 -1.0708371 -74.227859 -32.482758 12.214771
10840000000 -32.351768 2.3827176 -1.0613259 -74.302994 -1.0701989 -74.296562 -32.413303 12.507749
10850000000 -32.289326 2.9289632 -1.0607092 -74.371658 -1.06967 -74.370888 -32.363598 13.113739
10860000000 -32.207611 3.228406 -1.0605341 -74.44706 -1.0686041 -74.439903 -32.295307 13.43006
10870000000 -32.136757 3.4952648 -1.0607105 -74.512978 -1.0685836 -74.508942 -32.261101 13.782496
10880000000 -32.082352 3.5277214 -1.0598567 -74.583839 -1.0681095 -74.579102 -32.260586 13.916758
10890000000 -32.069199 3.4680138 -1.0596843 -74.65506 -1.0684936 -74.65139 -32.236706 13.885874
10900000000 -31.998943 3.5202248 -1.0595765 -74.731415 -1.0678507 -74.724274 -32.224388 13.678029
10910000000 -31.956926 3.68873 -1.059785 -74.801392 -1.0677345 -74.797638 -32.164383 13.553975
10920000000 -31.876236 3.5306547 -1.0601465 -74.870888 -1.067852 -74.867439 -32.081932 13.210516
10930000000 -31.805258 3.4291632 -1.059683 -74.938042 -1.0678304 -74.939713 -31.999073 12.80604
10940000000 -31.737349 3.638876 -1.0593195 -75.010506 -1.0673251 -75.010231 -31.907227 12.362101
10950000000 -31.667883 3.4263361 -1.0594051 -75.083611 -1.0669596 -75.08091 -31.800104 12.509898
10960000000 -31.618795 3.6828892 -1.0596555 -75.153969 -1.067763 -75.152534 -31.723192 12.508258
10970000000 -31.570896 3.8427794 -1.0596291 -75.224045 -1.0673006 -75.221375 -31.65464 12.764315
10980000000 -31.519585 4.1637135 -1.0591255 -75.294022 -1.0677742 -75.28952 -31.602518 12.919457
10990000000 -31.410259 4.2015185 -1.0591645 -75.365601 -1.066586 -75.362251 -31.58919 12.897025
11000000000 -31.380211 4.1211295 -1.0582703 -75.435928 -1.0670388 -75.427994 -31.566721 13.074355
11010000000 -31.341869 4.1374745 -1.0577103 -75.507683 -1.0669173 -75.505882 -31.53956 13.126167
11020000000 -31.304504 4.3145919 -1.0582839 -75.575111 -1.0660678 -75.578697 -31.48727 12.912351
11030000000 -31.246315 4.3252764 -1.0580944 -75.6465 -1.0664583 -75.646126 -31.485641 12.503281
11040000000 -31.15559 4.4272799 -1.0575495 -75.713425 -1.0671248 -75.718994 -31.424892 12.307762
11050000000 -31.071928 4.2626681 -1.0580243 -75.790466 -1.0660691 -75.790382 -31.378359 11.902661
11060000000 -30.992586 4.2451959 -1.0580983 -75.863762 -1.0662895 -75.861351 -31.30698 11.384189
11070000000 -30.935986 4.1550255 -1.0580204 -75.937943 -1.0662092 -75.932602 -31.203785 11.008537
11080000000 -30.876663 4.2623553 -1.05893 -76.005943 -1.0657139 -75.998215 -31.124695 10.933402
11090000000 -30.812757 4.4673104 -1.0586667 -76.07518 -1.0655829 -76.069176 -31.046818 10.842015
11100000000 -30.753265 4.6044502 -1.057771 -76.148125 -1.0662519 -76.143608 -30.967873 11.136238
11110000000 -30.669353 4.6239071 -1.0579252 -76.222656 -1.0661248 -76.213623 -30.873682 11.395667
11120000000 -30.627188 4.7004189 -1.0572149 -76.291748 -1.0656271 -76.294312 -30.812422 11.689814
11130000000 -30.59024 4.700985 -1.0581254 -76.355278 -1.0650201 -76.359634 -30.761177 11.900162
11140000000 -30.556286 4.6412244 -1.0571218 -76.433128 -1.0654472 -76.430145 -30.743927 12.099829
11150000000 -30.514345 4.6803441 -1.0569577 -76.499893 -1.0656192 -76.499092 -30.731354 12.414561
11160000000 -30.456566 4.6173968 -1.0573939 -76.575256 -1.0644419 -76.566681 -30.720352 12.415286
11170000000 -30.413649 4.3417554 -1.0571822 -76.645973 -1.0642236 -76.638145 -30.701714 12.237035
11180000000 -30.366753 4.1758933 -1.0568333 -76.713043 -1.0648471 -76.710144 -30.655447 11.977083
11190000000 -30.314306 4.2304921 -1.0561855 -76.783134 -1.0646195 -76.777626 -30.663256 11.705485
11200000000 -30.274221 4.2389154 -1.0570343 -76.854149 -1.0642354 -76.850571 -30.60285 11.491451
11210000000 -30.222042 4.2287283 -1.0563046 -76.930107 -1.0642828 -76.920998 -30.542135 11.141844
11220000000 -30.18536 4.2864423 -1.0563889 -76.995392 -1.0642844 -76.995491 -30.474136 11.068308
11230000000 -30.175077 4.5581479 -1.0559986 -77.067062 -1.0639309 -77.064781 -30.418438 10.9111
11240000000 -30.13201 4.8005714 -1.0551107 -77.138359 -1.0638945 -77.135345 -30.361944 10.980493
11250000000 -30.115221 4.8433547 -1.0550915 -77.209465 -1.0631303 -77.204628 -30.315277 11.243979
11260000000 -30.081387 5.029964 -1.055114 -77.278397 -1.0633922 -77.272301 -30.295908 11.174222
11270000000 -30.089615 5.0637856 -1.0550338 -77.349228 -1.0630029 -77.344055 -30.30937 11.195298
11280000000 -30.056097 4.9743156 -1.0553005 -77.423088 -1.0623907 -77.417671 -30.325769 11.257055
11290000000 -30.024504 4.6383381 -1.0547529 -77.490967 -1.0628952 -77.487633 -30.341047 11.183606
11300000000 -29.990225 4.5416322 -1.0544114 -77.558998 -1.0618931 -77.55587 -30.319801 11.059612
11310000000 -29.961813 4.2821684 -1.0541596 -77.628983 -1.0625348 -77.627472 -30.281219 10.610583
11320000000 -29.894968 4.0080471 -1.0539395 -77.699989 -1.0621811 -77.700844 -30.257858 10.224119
11330000000 -29.848019 3.8371196 -1.0543718 -77.77076 -1.0620294 -77.769424 -30.189041 9.9164104
11340000000 -29.766642 3.8093288 -1.0547193 -77.842377 -1.0624092 -77.838005 -30.120253 9.6841373
11350000000 -29.715174 3.6850293 -1.0546585 -77.911934 -1.0626314 -77.912415 -30.016708 9.4705153
11360000000 -29.625116 3.7254615 -1.0547235 -77.99028 -1.0627894 -77.9879 -29.927128 9.3634224
11370000000 -29.582664 3.9283619 -1.0551087 -78.055222 -1.0626476 -78.057724 -29.848146 9.3424835
11380000000 -29.517355 4.1255174 -1.0546609 -78.131912 -1.0623081 -78.127495 -29.816166 9.4067059
11390000000 -29.44523 4.4759879 -1.0543823 -78.201256 -1.0624796 -78.196999 -29.765318 9.6275921
11400000000 -29.393488 4.6221037 -1.0547955 -78.275536 -1.0617305 -78.271454 -29.731434 9.8294783
11410000000 -29.349201 4.7023997 -1.0540359 -78.344894 -1.0617536 -78.34684 -29.707314 9.8071289
11420000000 -29.320093 4.9020443 -1.0539118 -78.415871 -1.0621011 -78.415398 -29.71619 9.6183376
11430000000 -29.307631 4.9578853 -1.0539389 -78.488426 -1.061669 -78.484406 -29.730249 9.7193995
11440000000 -29.286774 4.9449449 -1.0529118 -78.556976 -1.0621477 -78.553108 -29.701492 9.5248842
11450000000 -29.251469 4.8151464 -1.0531826 -78.632996 -1.0620816 -78.628502 -29.669989 9.3081083
11460000000 -29.232073 4.774147 -1.0537679 -78.702408 -1.0610275 -78.699898 -29.606911 8.9576082
11470000000 -29.240776 4.7553458 -1.0535376 -78.773369 -1.0620241 -78.769089 -29.538488 8.6833839
11480000000 -29.225264 4.6438103 -1.0532094 -78.84481 -1.0613781 -78.844994 -29.474524 8.6256456
11490000000 -29.220699 4.5197916 -1.0538818 -78.913155 -1.0614769 -78.913673 -29.397661 8.6267471
11500000000 -29.183998 4.5574722 -1.0532889 -78.988029 -1.0609386 -78.985077 -29.336994 8.6554222
11510000000 -29.19042 4.4675808 -1.0534053 -79.058884 -1.0611383 -79.058815 -29.302694 8.8157177
11520000000 -29.149118 4.3614655 -1.0533526 -79.1325 -1.0611525 -79.132736 -29.326914 9.0338478
11530000000 -29.141979 4.2940331 -1.0538082 -79.199112 -1.0608765 -79.19915 -29.332901 9.1624413
11540000000 -29.127968 4.3057246 -1.0532634 -79.279572 -1.0615371 -79.272217 -29.34778 9.1245899
11550000000 -29.123133 4.2719216 -1.0523583 -79.342781 -1.0606871 -79.343788 -29.376926 9.2559366
11560000000 -29.124096 4.2110219 -1.0527472 -79.41748 -1.0600133 -79.410675 -29.406893 9.0240536
11570000000 -29.104504 3.9753866 -1.0519453 -79.48568 -1.0599769 -79.483841 -29.442017 8.8150511
11580000000 -29.100597 3.7198486 -1.0527469 -79.55616 -1.0598292 -79.552261 -29.441221 8.4118919
11590000000 -29.076393 3.5435271 -1.0526011 -79.624832 -1.0588993 -79.62133 -29.426575 8.1190796
11600000000 -29.039661 3.3811963 -1.0527637 -79.696358 -1.0595996 -79.693565 -29.373272 7.7643518
11610000000 -29.015356 3.3500772 -1.0528197 -79.771637 -1.0602248 -79.763313 -29.309732 7.5099912
11620000000 -28.954556 3.4829564 -1.0524873 -79.836884 -1.0603868 -79.837036 -29.262556 7.4421163
11630000000 -28.889261 3.6294272 -1.0529056 -79.911057 -1.0606596 -79.905075 -29.195007 7.4149628
11640000000 -28.870914 3.7267416 -1.0524467 -79.983589 -1.0611085 -79.979111 -29.133398 7.5091186
11650000000 -28.835419 3.8922884 -1.0525845 -80.055588 -1.0604541 -80.051689 -29.122623 7.4707322
11660000000 -28.804779 4.2812333 -1.0521686 -80.124657 -1.0606458 -80.124229 -29.100397 7.531302
11670000000 -28.792303 4.4699168 -1.0519619 -80.197891 -1.0597341 -80.192619 -29.10598 7.3910289
11680000000 -28.777723 4.7014704 -1.0508703 -80.26963 -1.0596185 -80.265701 -29.135239 7.4924383
11690000000 -28.780617 4.8394709 -1.0515523 -80.345612 -1.0592538 -80.333008 -29.139299 7.3273458
11700000000 -28.787989 4.7615104 -1.0506531 -80.411499 -1.0583777 -80.40976 -29.166588 6.9784503
11710000000 -28.786175 4.7641683 -1.0505024 -80.484467 -1.0587691 -80.477898 -29.179018 6.6096234
11720000000 -28.789303 4.6469707 -1.0506983 -80.556129 -1.0588745 -80.546761 -29.176613 6.2619681
11730000000 -28.779434 4.4999652 -1.0501312 -80.62516 -1.0591074 -80.61731 -29.121483 6.030251
11740000000 -28.754051 4.3175836 -1.0497774 -80.690628 -1.0583199 -80.688957 -29.059618 5.7015924
11750000000 -28.748302 4.1597562 -1.0500422 -80.764183 -1.0578489 -80.758575 -28.960159 5.6098418
11760000000 -28.721216 4.1399188 -1.0501968 -80.836067 -1.0575838 -80.828026 -28.876917 5.6168704
11770000000 -28.70578 3.9021554 -1.0506376 -80.910416 -1.0584151 -80.904701 -28.802233 5.6593714
11780000000 -28.672396 3.9924662 -1.0510906 -80.978775 -1.0577452 -80.979706 -28.748777 5.9376903
11790000000 -28.63924 4.0718184 -1.0510405 -81.053276 -1.0582628 -81.054062 -28.733171 6.0622373
11800000000 -28.605265 4.2073741 -1.050866 -81.122818 -1.0579265 -81.123367 -28.747162 6.2324395
11810000000 -28.597246 4.1640916 -1.049726 -81.19854 -1.0581069 -81.203522 -28.767403 6.3128242
11820000000 -28.570652 4.3583937 -1.0503596 -81.273735 -1.0578566 -81.269798 -28.827068 6.2686796
11830000000 -28.587225 4.5195088 -1.0503023 -81.347588 -1.0574107 -81.339226 -28.862383 6.1941457
11840000000 -28.598946 4.8445854 -1.0498642 -81.41922 -1.0577122 -81.413521 -28.890715 5.8724232
11850000000 -28.58811 4.8286872 -1.0495118 -81.488937 -1.0570465 -81.484497 -28.901894 5.4403067
11860000000 -28.583817 4.868607 -1.0491432 -81.558754 -1.0580039 -81.554787 -28.882133 5.0655503
11870000000 -28.578711 4.8845506 -1.0496057 -81.630882 -1.0577133 -81.625198 -28.866335 4.8013825
11880000000 -28.583849 4.8135009 -1.0496304 -81.702629 -1.0577393 -81.693916 -28.79101 4.525754
11890000000 -28.593346 4.8010149 -1.0499413 -81.769417 -1.0576161 -81.768593 -28.721699 4.331419
11900000000 -28.576895 4.6473613 -1.0502551 -81.842415 -1.0578903 -81.83683 -28.633198 4.1793222
11910000000 -28.529232 4.5261083 -1.0504516 -81.914413 -1.0573764 -81.907585 -28.58876 4.2483907
11920000000 -28.495964 4.4526911 -1.049546 -81.990532 -1.0579563 -81.981369 -28.564545 4.4511213
11930000000 -28.44615 4.5190072 -1.0493611 -82.062035 -1.0579603 -82.055916 -28.556032 4.6172223
11940000000 -28.39929 4.5969434 -1.0488374 -82.130966 -1.0569686 -82.120544 -28.563917 4.6999636
11950000000 -28.371702 4.6841969 -1.0487767 -82.200691 -1.0571029 -82.197968 -28.621063 4.5819001
11960000000 -28.395771 4.9329157 -1.0488694 -82.275429 -1.0572777 -82.272034 -28.647148 4.4553466
11970000000 -28.398657 5.1263018 -1.0482138 -82.344757 -1.0566242 -82.341568 -28.68684 4.2154937
11980000000 -28.424215 5.2270193 -1.0480808 -82.42028 -1.0569609 -82.410118 -28.750221 3.8996837
11990000000 -28.464138 5.2665153 -1.0485411 -82.485008 -1.05617 -82.478241 -28.749447 3.4998798
12000000000 -28.491579 5.2223821 -1.0477918 -82.558807 -1.0564255 -82.556259 -28.751326 2.9620879
12010000000 -28.510895 5.1450448 -1.0479381 -82.631638 -1.056031 -82.623009 -28.724154 2.6057141
12020000000 -28.542259 5.1246853 -1.0484531 -82.701706 -1.056061 -82.693764 -28.674212 2.407876
12030000000 -28.551138 5.054666 -1.04777 -82.772514 -1.0559655 -82.765022 -28.602377 2.3046653
12040000000 -28.552275 4.9003758 -1.0479912 -82.84407 -1.0557392 -82.840065 -28.532482 2.2982948
12050000000 -28.531609 4.7647343 -1.0483935 -82.914558 -1.0556397 -82.905975 -28.460754 2.6160057
12060000000 -28.531158 4.4983459 -1.0481124 -82.987556 -1.0552503 -82.981041 -28.429922 2.8469462
12070000000 -28.531313 4.3716826 -1.0483453 -83.060051 -1.0560722 -83.048935 -28.409935 3.0943599
12080000000 -28.520754 4.1853113 -1.0481704 -83.135262 -1.0563734 -83.125092 -28.42568 3.3351276
12090000000 -28.499495 4.125339 -1.0475572 -83.202438 -1.0553896 -83.199745 -28.452185 3.4387946
12100000000 -28.495935 4.0783362 -1.0475104 -83.272217 -1.0554421 -83.273514 -28.510916 3.4530399
12110000000 -28.478685 3.9559689 -1.0474185 -83.345726 -1.0553846 -83.341003 -28.546005 3.4317427
12120000000 -28.480558 3.8688629 -1.0471803 -83.421509 -1.0554655 -83.412285 -28.592562 3.3166826
12130000000 -28.466507 3.7728074 -1.0473009 -83.491287 -1.0555546 -83.484039 -28.602724 2.9306755
12140000000 -28.457876 3.6786661 -1.0467734 -83.560638 -1.055441 -83.553108 -28.593029 2.7024865
12150000000 -28.437687 3.6552954 -1.0464315 -83.635437 -1.0549459 -83.628998 -28.56736 2.2433248
12160000000 -28.424496 3.6420059 -1.0461259 -83.70356 -1.0549476 -83.696587 -28.537466 2.141346
12170000000 -28.373842 3.5560677 -1.0466282 -83.772392 -1.0553139 -83.768707 -28.494133 2.0036287
12180000000 -28.354153 3.592145 -1.0469148 -83.845558 -1.0540236 -83.838547 -28.419563 1.847661
12190000000 -28.321539 3.5879953 -1.0467579 -83.912071 -1.0539392 -83.909981 -28.379614 1.840951
12200000000 -28.292519 3.6010439 -1.0462939 -83.984055 -1.0538359 -83.979553 -28.352909 1.754544
12210000000 -28.263037 3.6660991 -1.0464448 -84.056038 -1.0547694 -84.053642 -28.350103 1.7548202
12220000000 -28.242935 3.7247639 -1.0458077 -84.136879 -1.0550467 -84.12075 -28.372776 1.743456
12230000000 -28.226473 3.8743501 -1.0458041 -84.20652 -1.0542523 -84.193977 -28.38953 1.4984267
12240000000 -28.241833 4.0076299 -1.045458 -84.276642 -1.05445 -84.267685 -28.408258 1.1658967
12250000000 -28.248791 4.1315956 -1.0461016 -84.350418 -1.0533328 -84.339958 -28.439156 0.88194138
12260000000 -28.284931 4.3868384 -1.0452995 -84.419319 -1.0544275 -84.408524 -28.462702 0.58511311
12270000000 -28.312149 4.46099 -1.0460037 -84.492172 -1.0532767 -84.485611 -28.488607 0.32654127
12280000000 -28.335281 4.5122027 -1.0456259 -84.560585 -1.0535861 -84.552559 -28.478846 0.0018493754
12290000000 -28.375404 4.4666429 -1.0457448 -84.633209 -1.0539178 -84.624763 -28.460728 -0.1637319
12300000000 -28.422768 4.3989387 -1.0451231 -84.701775 -1.0540154 -84.698593 -28.43434 -0.21798441
12310000000 -28.437702 4.2451382 -1.0451708 -84.771187 -1.0535301 -84.76693 -28.390995 -0.17941453
12320000000 -28.444876 4.0949144 -1.044937 -84.846939 -1.052899 -84.833412 -28.347591 -0.058309205
12330000000 -28.436956 3.891134 -1.0448004 -84.908722 -1.0526183 -84.910248 -28.325237 0.068379946
12340000000 -28.429825 3.6382356 -1.0440955 -84.983658 -1.0523368 -84.979866 -28.31646 0.21545058
12350000000 -28.418985 3.4628358 -1.0448176 -85.056267 -1.0512904 -85.047493 -28.315899 0.20689499
12360000000 -28.377474 3.3002191 -1.0437051 -85.129089 -1.0518656 -85.121284 -28.346342 0.080987319
12370000000 -28.359324 3.3411367 -1.044055 -85.202583 -1.0518923 -85.190208 -28.374113 -0.025921687
12380000000 -28.338867 3.3334234 -1.0440987 -85.275101 -1.0517052 -85.260941 -28.404764 -0.39915687
12390000000 -28.32753 3.3274667 -1.0437946 -85.346954 -1.0511371 -85.335159 -28.422421 -0.80084765
12400000000 -28.332829 3.358321 -1.0430257 -85.415558 -1.0514352 -85.407997 -28.430258 -1.2538434
12410000000 -28.347342 3.3650124 -1.043245 -85.485817 -1.0504621 -85.481857 -28.413292 -1.5959574
12420000000 -28.368183 3.3489695 -1.0425748 -85.559944 -1.0509382 -85.54998 -28.397278 -2.0270541
12430000000 -28.39583 3.2888663 -1.0432904 -85.631104 -1.0503958 -85.624077 -28.373383 -2.323292
12440000000 -28.41107 3.2448947 -1.042194 -85.702309 -1.0507216 -85.696777 -28.354082 -2.4389215
12450000000 -28.412815 3.1845202 -1.0434158 -85.773193 -1.0506274 -85.765877 -28.334064 -2.4110057
12460000000 -28.428751 3.0187244 -1.042582 -85.847855 -1.0511978 -85.839378 -28.342386 -2.2719657
12470000000 -28.443041 3.034673 -1.0425656 -85.916496 -1.0505021 -85.91082 -28.344275 -2.3143649
12480000000 -28.457613 2.7738554 -1.0432923 -85.992645 -1.0508839 -85.98307 -28.36025 -2.1551287
12490000000 -28.483589 2.7178178 -1.0418603 -86.060944 -1.0502096 -86.051674 -28.374855 -2.2445812
12500000000 -28.487906 2.8197856 -1.0427282 -86.132324 -1.0507407 -86.124359 -28.441416 -2.2306745
12510000000 -28.508219 2.7910857 -1.0422513 -86.203712 -1.0511206 -86.200653 -28.477942 -2.3779333
12520000000 -28.516966 2.7452767 -1.0425373 -86.277748 -1.0509511 -86.272888 -28.537231 -2.6907547
12530000000 -28.520096 2.6250758 -1.0415386 -86.351181 -1.0503362 -86.343407 -28.564501 -3.0122051
12540000000 -28.54155 2.818856 -1.0417238 -86.418243 -1.0502119 -86.41597 -28.587698 -3.3420172
12550000000 -28.548651 2.9010293 -1.0419867 -86.490372 -1.0504183 -86.488113 -28.584141 -3.6862361
12560000000 -28.568613 2.9869766 -1.0405685 -86.564354 -1.0504965 -86.563568 -28.550461 -4.0462127
12570000000 -28.551033 3.0733502 -1.0404247 -86.63903 -1.0499133 -86.633484 -28.513624 -4.1615815
12580000000 -28.553583 3.0261061 -1.0404286 -86.703712 -1.0499686 -86.700691 -28.454054 -4.2066107
12590000000 -28.563293 2.9990928 -1.0407457 -86.777565 -1.0495529 -86.76825 -28.39996 -4.29111
12600000000 -28.553305 3.0101175 -1.0407932 -86.851227 -1.0494666 -86.841774 -28.333822 -4.2666502
12610000000 -28.522245 2.9320209 -1.0412741 -86.919281 -1.0486456 -86.912277 -28.309719 -4.2820268
12620000000 -28.516438 2.8076029 -1.0411435 -86.989311 -1.0499611 -86.979591 -28.293467 -4.2461281
12630000000 -28.504725 2.6103003 -1.0409125 -87.065941 -1.0498961 -87.052948 -28.29084 -4.2468657
12640000000 -28.503059 2.5017223 -1.0406313 -87.13208 -1.0495708 -87.125961 -28.301403 -4.34271
12650000000 -28.477619 2.4997005 -1.0401665 -87.207901 -1.0488249 -87.19886 -28.320333 -4.5841599
12660000000 -28.486176 2.5037963 -1.0403967 -87.279457 -1.0490599 -87.269318 -28.351044 -4.8275504
12670000000 -28.491161 2.3283265 -1.0403221 -87.353477 -1.0488832 -87.346626 -28.383495 -5.1027527
12680000000 -28.53997 2.2809727 -1.0401241 -87.424393 -1.0480211 -87.421349 -28.403393 -5.4897618
12690000000 -28.585066 2.1352634 -1.0405158 -87.502563 -1.048463 -87.495216 -28.399416 -5.6214037
12700000000 -28.643429 2.1306264 -1.0400652 -87.567619 -1.0490563 -87.567734 -28.391275 -5.7751479
12710000000 -28.658203 1.9155494 -1.0395476 -87.645103 -1.0485806 -87.639748 -28.3993 -5.9248829
12720000000 -28.697306 1.8112544 -1.0402586 -87.71859 -1.047685 -87.710609 -28.391191 -5.878552
12730000000 -28.708385 1.7518461 -1.0396603 -87.789742 -1.0481296 -87.783379 -28.405647 -5.819757
12740000000 -28.689966 1.5899072 -1.0401471 -87.863197 -1.0472007 -87.85672 -28.423687 -5.7409368
12750000000 -28.719553 1.5776844 -1.0406399 -87.936638 -1.0487078 -87.927567 -28.461922 -5.6729198
12760000000 -28.724758 1.4611923 -1.0407465 -88.004005 -1.0484568 -87.997826 -28.464476 -5.6535931
12770000000 -28.713947 1.4090832 -1.0397972 -88.076286 -1.0479882 -88.073624 -28.509586 -5.868329
12780000000 -28.690809 1.4594949 -1.040107 -88.152458 -1.0479275 -88.140343 -28.529228 -6.0787578
12790000000 -28.683521 1.6341981 -1.0390369 -88.21833 -1.0478761 -88.219231 -28.591702 -6.4237924
12800000000 -28.684109 1.7179161 -1.0392222 -88.288498 -1.0477111 -88.285797 -28.610403 -6.9410839
12810000000 -28.698967 2.0049939 -1.0389329 -88.360886 -1.0479583 -88.359238 -28.62257 -7.4205899
12820000000 -28.730324 2.0705216 -1.0391545 -88.431839 -1.0472571 -88.428955 -28.61594 -7.8131251
12830000000 -28.789244 2.0840752 -1.0382529 -88.50882 -1.0469322 -88.503654 -28.581312 -8.2000561
12840000000 -28.842169 2.2813115 -1.0384549 -88.580841 -1.0458094 -88.570602 -28.546528 -8.5189791
12850000000 -28.858326 2.196599 -1.0376273 -88.65593 -1.0463983 -88.646706 -28.530973 -8.6627884
12860000000 -28.882137 2.1239452 -1.0379393 -88.72731 -1.0463828 -88.718361 -28.510811 -8.6815596
12870000000 -28.873159 2.0921533 -1.0378075 -88.796318 -1.0472881 -88.788498 -28.506474 -8.719882
12880000000 -28.9016 1.9872679 -1.037704 -88.867355 -1.0469273 -88.861504 -28.494692 -8.7175827
12890000000 -28.921606 2.0972476 -1.039119 -88.941635 -1.0474293 -88.933487 -28.49975 -8.8612719
12900000000 -28.928766 1.8180666 -1.0392753 -89.011383 -1.0469165 -89.007751 -28.488552 -8.9006472
12910000000 -28.938135 1.6449728 -1.0386857 -89.084442 -1.0469636 -89.079605 -28.505722 -9.0895138
12920000000 -28.932564 1.5689278 -1.0394111 -89.150612 -1.0467705 -89.149452 -28.498804 -9.2750082
12930000000 -28.974451 1.4721768 -1.0380495 -89.221924 -1.0473344 -89.21714 -28.505238 -9.6638002
12940000000 -28.983009 1.3989284 -1.0388379 -89.299263 -1.0457432 -89.292618 -28.51733 -9.9051571
12950000000 -28.992769 1.3338799 -1.0377066 -89.369865 -1.0459747 -89.365128 -28.493904 -10.126425
12960000000 -29.014303 1.2414258 -1.0373003 -89.43969 -1.0464799 -89.435005 -28.470213 -10.346466
12970000000 -29.039177 1.1879411 -1.0371528 -89.511505 -1.0453384 -89.510323 -28.445953 -10.571133
12980000000 -29.04809 1.2284055 -1.0368017 -89.579712 -1.0455673 -89.572014 -28.409266 -10.606842
12990000000 -29.073906 1.0521419 -1.0368309 -89.657967 -1.0456483 -89.644432 -28.432949 -10.628145
13000000000 -29.064653 0.9528259 -1.0372585 -89.721268 -1.0452904 -89.718872 -28.422628 -10.579606
13010000000 -29.051991 0.74340498 -1.0368898 -89.796936 -1.0441054 -89.79335 -28.418579 -10.662117
13020000000 -29.068357 0.71318221 -1.0369076 -89.865723 -1.0452713 -89.862747 -28.429039 -10.582065
13030000000 -29.05373 0.65916133 -1.0360777 -89.938828 -1.045162 -89.933365 -28.424986 -10.723809
13040000000 -29.072308 0.54787654 -1.0376754 -90.008255 -1.0449479 -90.006432 -28.444588 -10.842604
13050000000 -29.077209 0.39972967 -1.0369703 -90.085236 -1.0444603 -90.080994 -28.455742 -10.916604
13060000000 -29.101452 0.41179845 -1.0356669 -90.154137 -1.0442137 -90.150551 -28.462688 -11.12604
13070000000 -29.106621 0.31728044 -1.035737 -90.229935 -1.0445838 -90.227036 -28.494877 -11.340487
13080000000 -29.139273 0.52717674 -1.0361934 -90.301201 -1.0444072 -90.296005 -28.510416 -11.634248
13090000000 -29.161654 0.5973987 -1.0353717 -90.376091 -1.0437571 -90.364677 -28.517689 -11.980696
13100000000 -29.218454 0.6462689 -1.0360909 -90.450996 -1.0442137 -90.446182 -28.538818 -12.104123
13110000000 -29.278402 0.68108594 -1.0359762 -90.520462 -1.0434276 -90.5168 -28.542646 -12.236771
13120000000 -29.341728 0.85772872 -1.0349829 -90.600449 -1.0440464 -90.591064 -28.551931 -12.413211
13130000000 -29.398886 0.86838812 -1.0352037 -90.674004 -1.0431691 -90.6614 -28.54273 -12.385476
13140000000 -29.442816 0.67345858 -1.0351505 -90.745293 -1.0439569 -90.734299 -28.572668 -12.51206
13150000000 -29.466618 0.47232199 -1.0359066 -90.810593 -1.0431416 -90.808266 -28.59734 -12.458317
13160000000 -29.481956 0.24981575 -1.0352763 -90.887581 -1.0435967 -90.879288 -28.594942 -12.593153
13170000000 -29.52536 -0.26043612 -1.0353417 -90.960106 -1.0428358 -90.954605 -28.592077 -12.876569
13180000000 -29.514141 -0.35521951 -1.0354245 -91.030457 -1.0434726 -91.023277 -28.589609 -13.197924
13190000000 -29.536781 -0.77694768 -1.0351752 -91.099876 -1.0424633 -91.097679 -28.566193 -13.633271
13200000000 -29.52795 -1.1485099 -1.034915 -91.176262 -1.0423751 -91.169563 -28.537127 -13.713985
13210000000 -29.520582 -1.5697806 -1.0344074 -91.242218 -1.0422777 -91.246582 -28.476103 -14.026924
13220000000 -29.532795 -1.6753569 -1.0346923 -91.319427 -1.0423135 -91.311821 -28.428772 -14.224377
13230000000 -29.537991 -1.9560829 -1.0349668 -91.390137 -1.0418962 -91.387444 -28.386637 -14.353234
13240000000 -29.513893 -2.1454084 -1.0341512 -91.461128 -1.041822 -91.456245 -28.351107 -14.347427
13250000000 -29.534033 -2.2516248 -1.0339255 -91.529739 -1.0411146 -91.524567 -28.333727 -14.21101
13260000000 -29.539835 -2.2793932 -1.0349212 -91.601509 -1.0414425 -91.598396 -28.346478 -14.055428
13270000000 -29.515381 -2.3906004 -1.0344028 -91.677437 -1.0412527 -91.672882 -28.383415 -13.904006
13280000000 -29.540144 -2.364145 -1.0349472 -91.749718 -1.0418808 -91.747467 -28.424355 -13.887221
13290000000 -29.553833 -2.515506 -1.0344281 -91.818771 -1.0429273 -91.816093 -28.488092 -13.950669
13300000000 -29.580069 -2.4278176 -1.0347984 -91.894493 -1.042429 -91.894005 -28.527374 -13.960478
13310000000 -29.613483 -2.4072318 -1.0344826 -91.976151 -1.0425985 -91.963554 -28.573339 -14.229879
13320000000 -29.654318 -2.6303434 -1.034523 -92.041626 -1.0430287 -92.034714 -28.607637 -14.357673
13330000000 -29.706812 -2.9077361 -1.0335052 -92.115448 -1.042668 -92.104729 -28.609047 -14.616343
13340000000 -29.742332 -3.0874529 -1.0341746 -92.193481 -1.0425916 -92.1838 -28.609421 -14.86798
13350000000 -29.773886 -3.3209124 -1.0339824 -92.264519 -1.0417403 -92.256783 -28.57196 -15.046306
13360000000 -29.808973 -3.4501126 -1.0343864 -92.336426 -1.0422901 -92.329506 -28.539661 -14.974466
13370000000 -29.803123 -3.6733668 -1.0336905 -92.406967 -1.0418508 -92.399818 -28.525526 -15.068593
13380000000 -29.784111 -3.8135221 -1.0331631 -92.478615 -1.0415182 -92.478348 -28.509045 -15.18569
13390000000 -29.765598 -3.7861691 -1.033828 -92.549995 -1.0422217 -92.543297 -28.502695 -15.134272
13400000000 -29.754906 -3.8542449 -1.0341476 -92.62159 -1.040982 -92.615845 -28.526981 -15.180161
13410000000 -29.766968 -3.8861318 -1.034481 -92.693886 -1.0420753 -92.685555 -28.530569 -15.371822
13420000000 -29.767382 -4.0071859 -1.0340211 -92.766602 -1.0420637 -92.757317 -28.549484 -15.446297
13430000000 -29.776585 -4.2276678 -1.0341355 -92.839844 -1.0417386 -92.830414 -28.568813 -15.818914
13440000000 -29.804853 -4.5336533 -1.0336412 -92.911324 -1.0421519 -92.900429 -28.571964 -16.171152
13450000000 -29.813103 -4.6457396 -1.033389 -92.983788 -1.0415229 -92.974327 -28.559334 -16.523096
13460000000 -29.85438 -4.9377441 -1.0338202 -93.055847 -1.0422254 -93.04557 -28.527069 -16.913794
13470000000 -29.872868 -5.2822518 -1.0336556 -93.126686 -1.0416205 -93.119194 -28.488863 -17.268854
13480000000 -29.902008 -5.677362 -1.0333104 -93.199112 -1.0403368 -93.191719 -28.417793 -17.589003
13490000000 -29.911249 -5.9756222 -1.0326415 -93.272194 -1.0410125 -93.263245 -28.358919 -17.636116
13500000000 -29.912226 -6.3353872 -1.0320697 -93.346016 -1.0405924 -93.337433 -28.302843 -17.670324
13510000000 -29.883995 -6.6437416 -1.0325851 -93.416351 -1.0397781 -93.404549 -28.259138 -17.653122
13520000000 -29.85178 -6.7853341 -1.032244 -93.485023 -1.0393621 -93.474472 -28.239931 -17.474689
13530000000 -29.820005 -6.8747411 -1.031823 -93.552422 -1.0403757 -93.548317 -28.254297 -17.241428
13540000000 -29.793026 -6.9616451 -1.032334 -93.628326 -1.0394015 -93.616348 -28.290737 -17.118795
13550000000 -29.799536 -6.8977437 -1.031893 -93.69799 -1.0400231 -93.684959 -28.337513 -16.890203
13560000000 -29.801542 -6.8673768 -1.0313921 -93.764717 -1.0404978 -93.758049 -28.390064 -16.865507
13570000000 -29.798239 -7.0308909 -1.0323563 -93.841698 -1.039519 -93.827065 -28.42321 -16.992439
13580000000 -29.833607 -7.0567231 -1.0322282 -93.920723 -1.0408388 -93.901733 -28.454807 -17.160877
13590000000 -29.901701 -7.157176 -1.0325395 -93.994003 -1.0405191 -93.979332 -28.483587 -17.381863
13600000000 -29.927603 -7.3064933 -1.0320253 -94.062042 -1.0410714 -94.052238 -28.489555 -17.629499
13610000000 -29.971346 -7.5286956 -1.0330898 -94.139091 -1.0400612 -94.128052 -28.460289 -17.972309
13620000000 -30.021299 -7.7957797 -1.0322483 -94.211708 -1.040628 -94.196457 -28.404888 -18.346462
13630000000 -30.035007 -8.2011604 -1.032083 -94.281197 -1.0395637 -94.273293 -28.381123 -18.575443
13640000000 -30.071259 -8.5113983 -1.0321472 -94.356956 -1.0404909 -94.342285 -28.348236 -18.676498
13650000000 -30.077011 -8.7779436 -1.0320578 -94.425583 -1.0404767 -94.416664 -28.330265 -18.667656
13660000000 -30.069643 -9.144227 -1.0322282 -94.497787 -1.0407536 -94.489487 -28.297546 -18.780594
13670000000 -30.068026 -9.4981775 -1.0317843 -94.57029 -1.0408764 -94.558075 -28.309071 -18.759081
13680000000 -30.05481 -9.6780062 -1.0322928 -94.640343 -1.0404967 -94.633118 -28.347696 -18.725368
13690000000 -30.071136 -9.9008675 -1.0320644 -94.714287 -1.0402783 -94.704247 -28.382864 -18.645962
13700000000 -30.093245 -10.393191 -1.0330372 -94.787659 -1.0403215 -94.778687 -28.413235 -18.601753
13710000000 -30.139351 -10.721312 -1.0330471 -94.863655 -1.0398353 -94.84288 -28.435371 -18.706987
13720000000 -30.167656 -11.085426 -1.0321701 -94.93396 -1.0405513 -94.924019 -28.462166 -18.862532
13730000000 -30.210062 -11.417182 -1.0324104 -95.006851 -1.0406001 -94.996002 -28.461672 -18.904703
13740000000 -30.208595 -11.798444 -1.0326179 -95.080948 -1.0404602 -95.067329 -28.45797 -19.298929
13750000000 -30.228111 -12.353675 -1.0321258 -95.152145 -1.0400606 -95.142509 -28.416342 -19.46698
13760000000 -30.217512 -12.767054 -1.0319383 -95.224434 -1.0408411 -95.216728 -28.373995 -19.687326
13770000000 -30.196768 -13.015109 -1.0323753 -95.295822 -1.0407786 -95.290794 -28.31279 -19.806973
13780000000 -30.153233 -13.18646 -1.0316671 -95.368645 -1.0402639 -95.356888 -28.269323 -19.895527
13790000000 -30.092916 -13.260678 -1.0316139 -95.43927 -1.0404307 -95.432938 -28.239386 -19.715546
13800000000 -30.008863 -13.361682 -1.0320723 -95.512886 -1.0404849 -95.499382 -28.196808 -19.625641
13810000000 -29.938356 -13.401954 -1.0326606 -95.580994 -1.0392334 -95.569412 -28.18696 -19.66869
13820000000 -29.880167 -13.485942 -1.0324308 -95.648613 -1.0395528 -95.639954 -28.189749 -19.598904
13830000000 -29.846476 -13.140555 -1.0316596 -95.721977 -1.0397198 -95.710022 -28.208351 -19.62252
13840000000 -29.844225 -13.142587 -1.0321281 -95.793678 -1.0396268 -95.779572 -28.218824 -19.646494
13850000000 -29.860319 -13.122549 -1.0322633 -95.863831 -1.0406882 -95.851715 -28.211491 -19.786276
13860000000 -29.905457 -13.267533 -1.031463 -95.933334 -1.0409381 -95.924919 -28.18935 -20.036852
13870000000 -29.955101 -13.662739 -1.0317833 -96.005142 -1.0404391 -95.995598 -28.162594 -20.243959
13880000000 -30.002626 -13.978873 -1.0317446 -96.081085 -1.0407816 -96.067352 -28.150494 -20.359301
13890000000 -30.009274 -14.485195 -1.0315973 -96.153946 -1.0402803 -96.144554 -28.122179 -20.468643
13900000000 -30.049597 -14.985968 -1.0317811 -96.226532 -1.0400504 -96.21727 -28.087858 -20.499664
13910000000 -30.03475 -15.200127 -1.0318956 -96.296623 -1.0395893 -96.291656 -28.072245 -20.549961
13920000000 -30.011839 -15.527395 -1.0321487 -96.372803 -1.0409744 -96.363022 -28.082449 -20.512213
13930000000 -29.990965 -15.730462 -1.0315812 -96.443382 -1.0405174 -96.432137 -28.088402 -20.479774
13940000000 -29.965109 -15.819765 -1.0314298 -96.515495 -1.0403707 -96.50489 -28.109497 -20.411507
13950000000 -29.978668 -15.888841 -1.0318011 -96.587845 -1.0402293 -96.577499 -28.129921 -20.541706
13960000000 -29.976656 -16.027481 -1.0314393 -96.666046 -1.0403174 -96.648911 -28.143904 -20.699732
13970000000 -30.004549 -16.251825 -1.0317154 -96.73954 -1.039878 -96.721428 -28.193783 -20.796885
13980000000 -30.036715 -16.263672 -1.0319501 -96.812912 -1.0401067 -96.800163 -28.212664 -21.028479
13990000000 -30.08983 -16.63055 -1.031262 -96.883369 -1.0408093 -96.871376 -28.211519 -21.087584
14000000000 -30.143427 -17.141005 -1.031607 -96.953758 -1.0404787 -96.947525 -28.19726 -21.239939
14010000000 -30.185642 -17.623798 -1.0326406 -97.029762 -1.0413978 -97.018341 -28.177307 -21.496305
14020000000 -30.194344 -18.326777 -1.0319626 -97.105331 -1.0409843 -97.091522 -28.134016 -21.649506
14030000000 -30.19269 -18.965885 -1.0323615 -97.178673 -1.0411741 -97.163002 -28.09416 -21.828203
14040000000 -30.153963 -19.597937 -1.032396 -97.255119 -1.0416659 -97.237724 -28.03125 -21.760559
14050000000 -30.101223 -20.13747 -1.0328008 -97.325089 -1.0413208 -97.315254 -27.978655 -21.892855
14060000000 -30.027178 -20.654305 -1.0325191 -97.396317 -1.0410613 -97.385887 -27.919983 -21.882938
14070000000 -29.918304 -20.886066 -1.032795 -97.466499 -1.0413679 -97.452995 -27.89839 -21.879625
14080000000 -29.83112 -21.129318 -1.032568 -97.537743 -1.0410724 -97.526108 -27.879841 -21.855869
14090000000 -29.754665 -21.188751 -1.0318586 -97.608589 -1.0413212 -97.604958 -27.866425 -21.943264
14100000000 -29.687496 -21.09528 -1.0329112 -97.680145 -1.0410342 -97.666794 -27.867672 -22.006832
14110000000 -29.663122 -21.07583 -1.0329099 -97.750351 -1.0409454 -97.737289 -27.904631 -21.959133
14120000000 -29.68499 -20.859856 -1.0322709 -97.820374 -1.0414767 -97.80748 -27.91737 -22.137497
14130000000 -29.718525 -20.598606 -1.0321271 -97.891144 -1.0408467 -97.882385 -27.930084 -22.130615
14140000000 -29.761835 -20.635326 -1.032046 -97.966339 -1.0413636 -97.951149 -27.919292 -22.207829
14150000000 -29.832174 -20.88834 -1.0316229 -98.039993 -1.0408316 -98.025009 -27.919495 -22.374514
14160000000 -29.906546 -21.087978 -1.0327551 -98.110855 -1.0410312 -98.099968 -27.900486 -22.443798
14170000000 -29.96612 -21.352192 -1.0324931 -98.182091 -1.0414515 -98.177605 -27.906469 -22.339197
14180000000 -30.01405 -21.856422 -1.0325654 -98.256638 -1.0412698 -98.247261 -27.897335 -22.261625
14190000000 -30.023176 -22.405212 -1.0333834 -98.33445 -1.041994 -98.322624 -27.864424 -22.114254
14200000000 -29.994505 -22.86149 -1.0335153 -98.405144 -1.0424514 -98.394859 -27.857487 -22.113628
14210000000 -29.966776 -23.277983 -1.034029 -98.478821 -1.0422207 -98.465782 -27.851698 -22.088861
14220000000 -29.90716 -23.657562 -1.0336201 -98.553482 -1.0425564 -98.538528 -27.850464 -22.075516
14230000000 -29.857077 -24.106247 -1.0332464 -98.618675 -1.0424712 -98.610802 -27.868929 -21.983728
14240000000 -29.823114 -24.462254 -1.0329945 -98.6968 -1.0426157 -98.683411 -27.868723 -22.015198
14250000000 -29.785957 -24.626842 -1.0329099 -98.765602 -1.0427114 -98.754463 -27.841583 -22.118063
14260000000 -29.757654 -24.835279 -1.0338503 -98.837242 -1.041894 -98.829376 -27.826704 -22.304897
14270000000 -29.75231 -25.154259 -1.0337728 -98.905457 -1.0426413 -98.901329 -27.822601 -22.356913
14280000000 -29.771027 -25.529238 -1.0341746 -98.981117 -1.0427413 -98.976791 -27.803993 -22.390457
14290000000 -29.787569 -25.833979 -1.0334858 -99.060303 -1.042357 -99.046364 -27.77397 -22.356548
14300000000 -29.806637 -26.335533 -1.0331837 -99.132896 -1.0432792 -99.123184 -27.736206 -22.373859
14310000000 -29.82527 -26.972891 -1.0336465 -99.207054 -1.0425551 -99.196915 -27.700287 -22.358456
14320000000 -29.817768 -27.655146 -1.0337301 -99.286209 -1.0431435 -99.271248 -27.682758 -22.436543
14330000000 -29.781916 -28.130529 -1.0338671 -99.354309 -1.0424553 -99.345261 -27.655399 -22.287579
14340000000 -29.726444 -28.560968 -1.034483 -99.433357 -1.0420779 -99.414757 -27.64535 -22.24976
14350000000 -29.641935 -28.944679 -1.0345982 -99.504639 -1.0425725 -99.494431 -27.638226 -22.17938
14360000000 -29.572542 -29.127001 -1.0345733 -99.578186 -1.0419374 -99.566742 -27.627516 -22.264317
14370000000 -29.521688 -29.334448 -1.0344058 -99.652649 -1.0432037 -99.638153 -27.605526 -22.206554
14380000000 -29.45966 -29.442047 -1.0347517 -99.725029 -1.0433822 -99.713173 -27.585962 -22.161085
14390000000 -29.410158 -29.523514 -1.0347543 -99.796753 -1.0435326 -99.786934 -27.561707 -22.042503
14400000000 -29.377977 -29.746126 -1.035207 -99.871323 -1.0438154 -99.85685 -27.535627 -21.963125
14410000000 -29.35364 -29.81426 -1.0355 -99.943192 -1.0435345 -99.926674 -27.523247 -21.807734
14420000000 -29.346048 -30.107344 -1.0350871 -100.01142 -1.0439361 -100.00135 -27.493895 -21.519901
14430000000 -29.330551 -30.580622 -1.0353401 -100.0861 -1.0446078 -100.07396 -27.455143 -21.285021
14440000000 -29.319271 -30.910072 -1.0357748 -100.1542 -1.0435945 -100.14271 -27.435543 -21.116436
14450000000 -29.305037 -31.392565 -1.0361769 -100.22936 -1.0445412 -100.21546 -27.417112 -20.951052
14460000000 -29.252193 -31.854801 -1.0359887 -100.30054 -1.044558 -100.28806 -27.432634 -20.790113
14470000000 -29.22533 -32.280045 -1.0357373 -100.36948 -1.0450091 -100.35557 -27.437561 -20.754566
14480000000 -29.18144 -32.510044 -1.0359597 -100.4418 -1.0436732 -100.43183 -27.433353 -20.760002
14490000000 -29.147892 -33.037014 -1.0364064 -100.51363 -1.0447935 -100.50096 -27.448145 -20.908562
14500000000 -29.086231 -33.091663 -1.0367649 -100.58761 -1.0447055 -100.57201 -27.473846 -21.140182
14510000000 -29.034767 -33.363277 -1.0360143 -100.66054 -1.0450743 -100.64983 -27.492954 -21.437529
14520000000 -29.016483 -33.443348 -1.0361484 -100.73084 -1.0450252 -100.72386 -27.497885 -21.710337
14530000000 -28.998978 -33.474476 -1.0359582 -100.80445 -1.044396 -100.79494 -27.480001 -21.903391
14540000000 -29.015013 -33.496883 -1.0360413 -100.88002 -1.0456134 -100.86694 -27.469326 -22.023304
14550000000 -29.009949 -33.52219 -1.0358102 -100.95515 -1.0446186 -100.94521 -27.427336 -22.130472
14560000000 -29.034418 -33.701408 -1.0359358 -101.03089 -1.044857 -101.01527 -27.386528 -22.185608
14570000000 -29.067408 -33.997185 -1.035961 -101.09868 -1.045184 -101.09238 -27.346058 -21.993032
14580000000 -29.082249 -34.219128 -1.0350888 -101.17889 -1.0456147 -101.163 -27.28747 -21.869492
14590000000 -29.070984 -34.559971 -1.0359896 -101.25563 -1.0453051 -101.23956 -27.232141 -21.627787
14600000000 -29.032007 -34.943317 -1.0357314 -101.32287 -1.0455528 -101.31516 -27.189955 -21.318729
14610000000 -29.003599 -35.381504 -1.0373782 -101.39506 -1.0452995 -101.38215 -27.155626 -21.102982
14620000000 -28.922062 -35.85688 -1.0379742 -101.46963 -1.0457537 -101.46007 -27.13377 -20.817591
14630000000 -28.834145 -36.043587 -1.0376333 -101.54491 -1.0468608 -101.53157 -27.112085 -20.612579
14640000000 -28.747543 -36.351761 -1.0380541 -101.61662 -1.046587 -101.6056 -27.103407 -20.533813
14650000000 -28.660049 -36.630581 -1.0397176 -101.6871 -1.0464128 -101.6803 -27.105619 -20.468212
14660000000 -28.591387 -36.847813 -1.039148 -101.76039 -1.0468611 -101.74826 -27.084972 -20.476118
14670000000 -28.52573 -36.897282 -1.0389688 -101.8288 -1.0466862 -101.82177 -27.069708 -20.40519
14680000000 -28.483377 -37.114742 -1.0391818 -101.90709 -1.0464816 -101.89071 -27.032425 -20.380095
14690000000 -28.455059 -37.340851 -1.0396768 -101.97425 -1.047318 -101.96255 -27.004168 -20.551239
14700000000 -28.441282 -37.48769 -1.039556 -102.0448 -1.0462797 -102.03316 -26.978252 -20.453939
14710000000 -28.43232 -37.592022 -1.040081 -102.11815 -1.0464513 -102.10125 -26.960482 -20.376959
14720000000 -28.426086 -37.910122 -1.0397564 -102.18382 -1.0468858 -102.17376 -26.938036 -20.179022
14730000000 -28.401384 -37.922291 -1.0397294 -102.25998 -1.0470403 -102.25102 -26.919977 -19.933376
14740000000 -28.388542 -38.142864 -1.040853 -102.33357 -1.0469023 -102.31789 -26.913528 -19.784246
14750000000 -28.351713 -38.287388 -1.0401586 -102.40108 -1.0471005 -102.39317 -26.929426 -19.723917
14760000000 -28.323841 -38.4697 -1.0405174 -102.47495 -1.0469737 -102.46346 -26.941275 -19.692495
14770000000 -28.305725 -38.655556 -1.0398438 -102.54589 -1.0468222 -102.54004 -26.967726 -19.811325
14780000000 -28.269592 -38.837265 -1.0404559 -102.62138 -1.0466957 -102.61613 -26.937523 -19.911884
14790000000 -28.26466 -38.86668 -1.0394502 -102.69577 -1.0477414 -102.69006 -26.938141 -20.185062
14800000000 -28.232475 -39.045738 -1.0401349 -102.77087 -1.0474702 -102.76187 -26.933077 -20.503801
14810000000 -28.231386 -39.255474 -1.0405086 -102.84392 -1.0482939 -102.8343 -26.914391 -20.565943
14820000000 -28.229382 -39.393715 -1.0403007 -102.91669 -1.0480719 -102.90511 -26.887146 -20.580753
14830000000 -28.24572 -39.676044 -1.040454 -102.98959 -1.0475388 -102.98057 -26.847322 -20.52643
14840000000 -28.255964 -40.051861 -1.0406139 -103.05958 -1.0491133 -103.05068 -26.807974 -20.470848
14850000000 -28.248026 -40.508381 -1.0406592 -103.1316 -1.0477988 -103.12643 -26.769274 -20.295942
14860000000 -28.227385 -41.050316 -1.0407767 -103.20696 -1.048727 -103.19125 -26.750893 -20.134562
14870000000 -28.193689 -41.618309 -1.0416354 -103.28072 -1.0481704 -103.26973 -26.728033 -19.840616
14880000000 -28.156393 -42.140678 -1.0410957 -103.35602 -1.0487164 -103.34239 -26.714588 -19.658689
14890000000 -28.075882 -42.777344 -1.0408316 -103.42851 -1.0495471 -103.41557 -26.732244 -19.594294
14900000000 -28.015976 -43.126751 -1.0413636 -103.50546 -1.0484176 -103.48866 -26.741903 -19.508949
14910000000 -27.926056 -43.539566 -1.0413047 -103.57377 -1.0482926 -103.56205 -26.742706 -19.63167
14920000000 -27.84952 -43.766659 -1.042226 -103.6465 -1.0481384 -103.63934 -26.735117 -19.740725
14930000000 -27.77327 -44.019127 -1.0420237 -103.71931 -1.049312 -103.70923 -26.72212 -20.029509
14940000000 -27.725002 -43.984509 -1.041103 -103.79467 -1.0483935 -103.77966 -26.696804 -20.245428
14950000000 -27.670958 -44.025791 -1.0424781 -103.87224 -1.0492638 -103.85526 -26.656223 -20.386801
14960000000 -27.624163 -43.970901 -1.0420897 -103.94349 -1.0488925 -103.93312 -26.603941 -20.290499
14970000000 -27.61751 -44.037056 -1.0414788 -104.01574 -1.0491258 -104.01125 -26.540768 -20.098297
14980000000 -27.605528 -44.142811 -1.0413185 -104.0967 -1.0500141 -104.08049 -26.504379 -19.78849
14990000000 -27.586887 -44.204803 -1.041381 -104.16563 -1.0494593 -104.16108 -26.463282 -19.487974
15000000000 -27.572813 -44.284958 -1.0413692 -104.24272 -1.0490685 -104.23363 -26.429523 -18.989389
15010000000 -27.544844 -44.57225 -1.0418723 -104.31554 -1.0496498 -104.30426 -26.404673 -18.527985
15020000000 -27.509417 -44.796898 -1.0417844 -104.39098 -1.0500154 -104.38055 -26.387936 -18.095795
15030000000 -27.470663 -44.959778 -1.0429626 -104.4637 -1.0504915 -104.4557 -26.400286 -17.802555
15040000000 -27.436413 -45.35891 -1.0433502 -104.53539 -1.0503579 -104.51861 -26.41716 -17.598433
15050000000 -27.380121 -45.646965 -1.0431097 -104.60662 -1.0506623 -104.58887 -26.436623 -17.526646
15060000000 -27.316904 -45.767246 -1.0435635 -104.67812 -1.0510764 -104.66539 -26.461046 -17.587282
15070000000 -27.252253 -45.915611 -1.0446177 -104.75159 -1.0515215 -104.74323 -26.467644 -17.761406
15080000000 -27.213465 -45.985367 -1.0442009 -104.82484 -1.0515826 -104.81558 -26.468615 -18.013079
15090000000 -27.158976 -46.067497 -1.0440754 -104.905 -1.0518695 -104.87967 -26.435026 -18.344151
15100000000 -27.143738 -46.124355 -1.0448632 -104.97057 -1.0524718 -104.95657 -26.415096 -18.667917
15110000000 -27.149948 -46.193447 -1.0454228 -105.04477 -1.0519694 -105.02935 -26.386187 -18.787008
15120000000 -27.146709 -46.259224 -1.0448781 -105.11555 -1.0534482 -105.09937 -26.314692 -18.9737
15130000000 -27.125872 -46.284485 -1.0448705 -105.19075 -1.0528818 -105.17494 -26.271824 -19.014185
15140000000 -27.110025 -46.587208 -1.0449953 -105.25551 -1.0529171 -105.24763 -26.217773 -18.897028
15150000000 -27.087795 -46.794777 -1.045294 -105.33263 -1.0532268 -105.31828 -26.174702 -18.900864
15160000000 -27.026197 -46.977016 -1.0461625 -105.40543 -1.0532513 -105.39377 -26.164688 -18.73329
15170000000 -26.97566 -47.359177 -1.0467224 -105.47753 -1.053121 -105.46953 -26.145065 -18.57423
15180000000 -26.915964 -47.594639 -1.0474073 -105.55571 -1.0544401 -105.54031 -26.126091 -18.456388
15190000000 -26.862175 -47.716049 -1.0474392 -105.62417 -1.0546296 -105.61018 -26.112583 -18.421911
15200000000 -26.777769 -47.956364 -1.0472894 -105.6996 -1.0549051 -105.68536 -26.072062 -18.428009
15210000000 -26.707529 -48.100285 -1.0481704 -105.77423 -1.0549315 -105.75813 -26.03829 -18.499855
15220000000 -26.628931 -48.27462 -1.0485342 -105.84298 -1.05555 -105.83436 -25.988661 -18.594088
15230000000 -26.578295 -48.22654 -1.0489267 -105.91737 -1.0555226 -105.90595 -25.929829 -18.670937
15240000000 -26.518488 -48.126019 -1.048691 -105.99242 -1.056023 -105.97645 -25.890688 -18.606026
15250000000 -26.472214 -48.234226 -1.0493271 -106.06113 -1.0554807 -106.05583 -25.833635 -18.47287
15260000000 -26.413301 -48.248173 -1.0495424 -106.13319 -1.0554761 -106.12441 -25.780581 -18.341715
15270000000 -26.362024 -48.242386 -1.0493968 -106.2009 -1.0565764 -106.19724 -25.736261 -18.256287
15280000000 -26.31249 -48.2239 -1.0495085 -106.27334 -1.0559405 -106.26836 -25.693218 -18.063175
15290000000 -26.251745 -48.321766 -1.0490918 -106.34499 -1.0572199 -106.33367 -25.672049 -17.84099
15300000000 -26.207945 -48.561241 -1.0499275 -106.41277 -1.0567443 -106.40523 -25.657 -17.767757
15310000000 -26.187969 -48.634007 -1.0497072 -106.48978 -1.057102 -106.47549 -25.645597 -17.653547
15320000000 -26.157719 -48.849266 -1.0495105 -106.55643 -1.0577892 -106.54561 -25.64352 -17.665936
15330000000 -26.13389 -49.03281 -1.0500046 -106.6228 -1.0574441 -106.61416 -25.640451 -17.709517
15340000000 -26.110556 -49.085182 -1.0496044 -106.69634 -1.0572149 -106.68479 -25.65382 -17.723263
15350000000 -26.11393 -49.219238 -1.0496795 -106.7646 -1.0569646 -106.75257 -25.657238 -17.796705
15360000000 -26.108612 -49.268654 -1.0492175 -106.84047 -1.0569956 -106.83047 -25.634975 -17.845404
15370000000 -26.114685 -49.369064 -1.0491505 -106.91025 -1.0570102 -106.89983 -25.638315 -17.7472
15380000000 -26.097536 -49.553322 -1.0486348 -106.98779 -1.0568204 -106.97099 -25.598358 -17.703371
15390000000 -26.097466 -49.640228 -1.0493327 -107.06435 -1.0565279 -107.04632 -25.596647 -17.532333
15400000000 -26.087809 -49.794895 -1.0490305 -107.14159 -1.0576875 -107.1171 -25.568411 -17.462189
15410000000 -26.052065 -49.996487 -1.048578 -107.21283 -1.0570267 -107.19704 -25.56349 -17.299761
15420000000 -26.011173 -50.127602 -1.0492141 -107.28642 -1.0564615 -107.27074 -25.543331 -17.070091
15430000000 -25.969009 -50.420414 -1.049013 -107.35954 -1.0569973 -107.34593 -25.507553 -17.051327
15440000000 -25.910978 -50.457722 -1.0495183 -107.43829 -1.0570363 -107.42398 -25.489792 -17.057341
15450000000 -25.843786 -50.544231 -1.049487 -107.5122 -1.0577495 -107.4971 -25.471991 -17.043217
15460000000 -25.77878 -50.627983 -1.0497316 -107.58527 -1.0573939 -107.57405 -25.435225 -17.160324
15470000000 -25.701078 -50.606495 -1.0505801 -107.66187 -1.0582317 -107.64846 -25.405577 -17.382341
15480000000 -25.613369 -50.54166 -1.0514125 -107.73358 -1.0589978 -107.72646 -25.366222 -17.507059
15490000000 -25.565073 -50.437344 -1.0511173 -107.80492 -1.0586555 -107.7988 -25.302694 -17.731478
15500000000 -25.502123 -50.312767 -1.0519892 -107.876 -1.0595649 -107.87139 -25.258627 -17.856586
15510000000 -25.471304 -50.255993 -1.0520974 -107.95582 -1.0591837 -107.94148 -25.189007 -17.926077
15520000000 -25.438725 -50.242382 -1.0521417 -108.02597 -1.0599734 -108.01334 -25.137526 -17.906885
15530000000 -25.425465 -50.252071 -1.0509623 -108.09879 -1.0597121 -108.08968 -25.074728 -17.705858
15540000000 -25.399591 -50.309822 -1.0512149 -108.1732 -1.059708 -108.15411 -25.028963 -17.483438
15550000000 -25.380135 -50.478756 -1.0512493 -108.24623 -1.0594213 -108.23045 -25.000954 -17.270355
15560000000 -25.353186 -50.723087 -1.0518372 -108.3167 -1.059531 -108.30476 -24.974228 -17.025742
15570000000 -25.308811 -50.964588 -1.0529026 -108.39223 -1.059528 -108.37547 -24.952793 -16.755941
15580000000 -25.256048 -51.128777 -1.0529543 -108.4609 -1.0599056 -108.44942 -24.943502 -16.539602
15590000000 -25.214012 -51.387856 -1.053028 -108.53219 -1.0608088 -108.51881 -24.938473 -16.314054
15600000000 -25.170849 -51.470276 -1.0536921 -108.60526 -1.0610768 -108.5946 -24.933327 -16.257683
15610000000 -25.11833 -51.547729 -1.05312 -108.67418 -1.0614551 -108.67172 -24.907906 -16.088655
15620000000 -25.067799 -51.500237 -1.0539665 -108.75505 -1.0612638 -108.74588 -24.876534 -16.149952
15630000000 -25.033014 -51.518959 -1.0542022 -108.82813 -1.0615252 -108.82026 -24.860149 -16.108431
15640000000 -25.013062 -51.615597 -1.0555856 -108.89877 -1.061429 -108.88963 -24.836109 -16.171736
15650000000 -24.96722 -51.46661 -1.0554262 -108.97433 -1.062441 -108.96975 -24.800188 -16.1933
15660000000 -24.931929 -51.433826 -1.0555496 -109.0461 -1.0631412 -109.03959 -24.771553 -16.137188
15670000000 -24.894497 -51.481205 -1.056163 -109.1166 -1.0636233 -109.11683 -24.733994 -16.152121
15680000000 -24.861322 -51.613838 -1.0566589 -109.19417 -1.0638578 -109.18437 -24.70648 -16.106844
15690000000 -24.830343 -51.670639 -1.0575564 -109.26386 -1.0641654 -109.25654 -24.688675 -16.053947
15700000000 -24.783712 -51.749413 -1.0576594 -109.33386 -1.0641376 -109.33125 -24.678616 -16.065569
15710000000 -24.741676 -51.871571 -1.0572592 -109.40144 -1.0647597 -109.39999 -24.666254 -16.058794
15720000000 -24.702427 -51.93594 -1.057201 -109.47713 -1.0649176 -109.46942 -24.664347 -16.163149
15730000000 -24.656754 -51.976776 -1.0580702 -109.54795 -1.0641316 -109.53923 -24.643553 -16.269863
15740000000 -24.616558 -51.9823 -1.0580629 -109.62267 -1.0644614 -109.61444 -24.652056 -16.384235
15750000000 -24.591024 -51.774029 -1.0585699 -109.69536 -1.0651597 -109.68822 -24.623472 -16.577972
15760000000 -24.555071 -51.632317 -1.0583675 -109.76762 -1.0648633 -109.75967 -24.59931 -16.851301
15770000000 -24.53171 -51.483448 -1.057803 -109.84145 -1.0654078 -109.82773 -24.568409 -17.052326
15780000000 -24.504303 -51.305908 -1.0582796 -109.91775 -1.0664209 -109.90299 -24.53438 -17.249763
15790000000 -24.492443 -51.124977 -1.0590367 -109.99227 -1.0653738 -109.98166 -24.482748 -17.369524
15800000000 -24.472092 -51.088726 -1.0590239 -110.06796 -1.0653675 -110.05457 -24.439749 -17.355825
15810000000 -24.459112 -51.00848 -1.0585197 -110.13929 -1.0661939 -110.12753 -24.376596 -17.300495
15820000000 -24.437332 -51.101448 -1.0593076 -110.21062 -1.0665983 -110.20502 -24.321218 -17.16568
15830000000 -24.412384 -51.267471 -1.0601002 -110.28883 -1.066496 -110.27577 -24.262533 -16.93413
15840000000 -24.383451 -51.447304 -1.0596106 -110.36459 -1.0668213 -110.35648 -24.213547 -16.807077
15850000000 -24.330873 -51.584072 -1.0598868 -110.43803 -1.0666171 -110.43031 -24.163839 -16.634861
15860000000 -24.273745 -51.772713 -1.0603801 -110.50724 -1.0672523 -110.50678 -24.125124 -16.398514
15870000000 -24.212204 -51.839729 -1.0611068 -110.5845 -1.0678629 -110.57726 -24.089722 -16.178886
15880000000 -24.170429 -51.874672 -1.0612684 -110.65949 -1.0680238 -110.65036 -24.06275 -16.130194
15890000000 -24.109535 -51.817314 -1.0618422 -110.73206 -1.0685022 -110.73033 -24.034216 -15.976485
15900000000 -24.064445 -51.751637 -1.0615597 -110.80984 -1.068665 -110.7999 -24.017403 -15.96887
15910000000 -24.025003 -51.690079 -1.0628076 -110.87469 -1.0683466 -110.87125 -23.997061 -15.989944
15920000000 -23.994139 -51.621971 -1.0628175 -110.94935 -1.0688369 -110.94886 -23.977394 -16.044188
15930000000 -23.989441 -51.590469 -1.0628182 -111.02513 -1.0687438 -111.01812 -23.966663 -16.134878
15940000000 -23.975883 -51.548744 -1.0633925 -111.09671 -1.0688773 -111.09094 -23.961924 -16.100801
15950000000 -23.966345 -51.63364 -1.0633535 -111.16705 -1.0695444 -111.1595 -23.940685 -16.216562
15960000000 -23.949244 -51.725655 -1.0631101 -111.23548 -1.0697776 -111.23654 -23.912054 -16.283499
15970000000 -23.946581 -51.839699 -1.0639719 -111.31138 -1.070038 -111.30476 -23.892519 -16.35458
15980000000 -23.927826 -51.988411 -1.0642017 -111.38334 -1.0694485 -111.37795 -23.873058 -16.276758
15990000000 -23.89847 -52.16621 -1.0641462 -111.45835 -1.0701965 -111.44778 -23.856989 -16.239323
16000000000 -23.860067 -52.221642 -1.0634246 -111.53181 -1.0704069 -111.52642 -23.836073 -16.211679
16010000000 -23.817383 -52.25288 -1.064636 -111.60429 -1.0709279 -111.60076 -23.813902 -16.229721
16020000000 -23.768354 -52.227936 -1.0654389 -111.68367 -1.0709352 -111.67451 -23.808249 -16.289318
16030000000 -23.721659 -52.220242 -1.0655868 -111.75552 -1.0721626 -111.7457 -23.788773 -16.346779
16040000000 -23.671911 -52.079899 -1.0660113 -111.83353 -1.072162 -111.81783 -23.774488 -16.47772
16050000000 -23.631037 -52.006046 -1.0665662 -111.90561 -1.0731336 -111.89406 -23.743937 -16.69101
16060000000 -23.595266 -51.868961 -1.0676312 -111.97962 -1.0736241 -111.9696 -23.706446 -16.895704
16070000000 -23.567379 -51.781715 -1.0678507 -112.05195 -1.074178 -112.04236 -23.666662 -17.125498
16080000000 -23.550346 -51.8022 -1.0678116 -112.12531 -1.0753901 -112.11614 -23.617779 -17.343246
16090000000 -23.524469 -51.817638 -1.0688809 -112.19473 -1.0751431 -112.19176 -23.570522 -17.499296
16100000000 -23.498034 -51.926685 -1.0682827 -112.26787 -1.075868 -112.2621 -23.515841 -17.582815
16110000000 -23.461044 -52.028332 -1.0694945 -112.34184 -1.0764998 -112.33624 -23.46949 -17.620195
16120000000 -23.436403 -52.185326 -1.0702986 -112.41035 -1.0770813 -112.40874 -23.426283 -17.50997
16130000000 -23.399921 -52.294029 -1.0700028 -112.48209 -1.0774468 -112.48128 -23.38842 -17.334278
16140000000 -23.360292 -52.437859 -1.0695617 -112.54875 -1.0776718 -112.55196 -23.359692 -17.161102
16150000000 -23.327019 -52.484985 -1.0702347 -112.62195 -1.0771234 -112.62328 -23.336889 -17.047926
16160000000 -23.302835 -52.583344 -1.0701562 -112.69501 -1.0772233 -112.69573 -23.320124 -16.829947
16170000000 -23.265409 -52.604298 -1.0706904 -112.76675 -1.0780662 -112.75693 -23.30933 -16.742764
16180000000 -23.254269 -52.572556 -1.070278 -112.83679 -1.0778928 -112.83596 -23.301779 -16.671364
16190000000 -23.229052 -52.487534 -1.0706563 -112.90596 -1.0774986 -112.90681 -23.301134 -16.661707
16200000000 -23.216524 -52.522377 -1.070798 -112.97797 -1.0778052 -112.97681 -23.305027 -16.724751
16210000000 -23.200785 -52.514656 -1.0706669 -113.05311 -1.0779356 -113.04332 -23.292194 -16.822248
16220000000 -23.191305 -52.498116 -1.0711625 -113.12439 -1.0784396 -113.11515 -23.276663 -16.971319
16230000000 -23.189419 -52.568092 -1.0711213 -113.19731 -1.0778366 -113.18748 -23.259642 -17.05233
16240000000 -23.158394 -52.635078 -1.0709779 -113.26888 -1.0779866 -113.25996 -23.225842 -17.133345
16250000000 -23.141476 -52.740097 -1.0714282 -113.34586 -1.0775862 -113.32966 -23.18734 -17.262999
16260000000 -23.106451 -52.873989 -1.07182 -113.41915 -1.0783788 -113.40407 -23.14226 -17.335985
16270000000 -23.062922 -52.945026 -1.0717945 -113.48237 -1.0790478 -113.47599 -23.107262 -17.372478
16280000000 -23.014988 -53.02499 -1.0721537 -113.56014 -1.0799426 -113.5571 -23.072079 -17.380934
16290000000 -22.961733 -53.034119 -1.0731694 -113.64283 -1.0801395 -113.63049 -23.029816 -17.341698
16300000000 -22.915794 -52.969803 -1.0726289 -113.71465 -1.0803888 -113.70741 -22.998144 -17.300077
16310000000 -22.862667 -52.956554 -1.073222 -113.78699 -1.080247 -113.77971 -22.977089 -17.388311
16320000000 -22.806274 -52.866531 -1.0736083 -113.86108 -1.0805824 -113.85853 -22.958406 -17.447191
16330000000 -22.765871 -52.813847 -1.0738887 -113.93042 -1.0810571 -113.92815 -22.944321 -17.529465
16340000000 -22.725727 -52.708958 -1.0734428 -114.00264 -1.082423 -113.99746 -22.92944 -17.688452
16350000000 -22.710054 -52.661068 -1.0739261 -114.07803 -1.0821599 -114.07939 -22.910221 -17.837542
16360000000 -22.679968 -52.634991 -1.0743077 -114.14941 -1.0822499 -114.1514 -22.88582 -18.076853
16370000000 -22.659643 -52.564503 -1.0742987 -114.22329 -1.0821662 -114.21925 -22.846344 -18.296974
16380000000 -22.633766 -52.565006 -1.0741552 -114.29224 -1.0828003 -114.29399 -22.811531 -18.430992
16390000000 -22.619453 -52.542583 -1.0754104 -114.36665 -1.0828975 -114.35878 -22.75491 -18.581488
16400000000 -22.586737 -52.555794 -1.0755367 -114.43806 -1.0828819 -114.435 -22.716789 -18.60714
16410000000 -22.562876 -52.518543 -1.0755537 -114.51376 -1.0837909 -114.5071 -22.661621 -18.597216
16420000000 -22.52619 -52.490795 -1.0759048 -114.58893 -1.0840131 -114.57881 -22.627794 -18.470541
16430000000 -22.486496 -52.431492 -1.0767512 -114.66808 -1.0842617 -114.65379 -22.586718 -18.378248
16440000000 -22.453403 -52.381927 -1.0761632 -114.73905 -1.084563 -114.73145 -22.549698 -18.23036
16450000000 -22.433073 -52.399574 -1.0768696 -114.81502 -1.0841826 -114.80761 -22.529222 -18.19961
16460000000 -22.412075 -52.501774 -1.0773772 -114.88295 -1.0851014 -114.87865 -22.501917 -18.143576
16470000000 -22.392614 -52.522678 -1.0780798 -114.95831 -1.0859559 -114.94718 -22.486082 -18.148466
16480000000 -22.377504 -52.589798 -1.0784876 -115.03093 -1.0869755 -115.02026 -22.480701 -18.246986
16490000000 -22.360258 -52.738716 -1.0787309 -115.10055 -1.0862345 -115.08694 -22.459768 -18.351976
16500000000 -22.336084 -52.842667 -1.0792619 -115.16853 -1.0868455 -115.16238 -22.434177 -18.521666
16510000000 -22.312387 -53.023472 -1.0799137 -115.24447 -1.0874174 -115.23565 -22.413969 -18.733019
16520000000 -22.275757 -53.154461 -1.0805179 -115.31917 -1.0874683 -115.30533 -22.387621 -18.897978
16530000000 -22.225815 -53.274826 -1.0805382 -115.39203 -1.0879145 -115.38957 -22.35626 -19.022038
16540000000 -22.180887 -53.345638 -1.0813476 -115.46825 -1.0885501 -115.46113 -22.315672 -19.122461
16550000000 -22.138012 -53.426693 -1.0812992 -115.5338 -1.0896517 -115.53671 -22.271881 -19.164333
16560000000 -22.085842 -53.394825 -1.0824159 -115.61256 -1.0900846 -115.61064 -22.233362 -19.197613
16570000000 -22.044561 -53.366543 -1.0809094 -115.68353 -1.0900314 -115.67722 -22.189594 -19.155083
16580000000 -22.001411 -53.304977 -1.0820632 -115.75513 -1.0900403 -115.75494 -22.172369 -19.06951
16590000000 -21.965094 -53.19318 -1.0830152 -115.83042 -1.0907304 -115.8205 -22.145069 -19.071161
16600000000 -21.926136 -53.025177 -1.083162 -115.90311 -1.0904572 -115.89803 -22.124271 -19.027977
16610000000 -21.895262 -52.890354 -1.0837915 -115.97388 -1.0912709 -115.97287 -22.114645 -19.085512
16620000000 -21.885132 -52.816051 -1.0835553 -116.04363 -1.0910403 -116.03999 -22.099539 -19.113863
16630000000 -21.862171 -52.66951 -1.0844626 -116.12157 -1.0914443 -116.11079 -22.095898 -19.270412
16640000000 -21.8386 -52.597996 -1.0850456 -116.19493 -1.0920308 -116.18521 -22.073978 -19.411358
16650000000 -21.820873 -52.476158 -1.084895 -116.26549 -1.092907 -116.25429 -22.064367 -19.574963
16660000000 -21.808636 -52.394318 -1.085564 -116.33917 -1.0927495 -116.32524 -22.033396 -19.738152
16670000000 -21.781561 -52.383915 -1.0858787 -116.41514 -1.0930505 -116.401 -22.005402 -19.937395
16680000000 -21.76832 -52.320889 -1.0857761 -116.48383 -1.09314 -116.47346 -21.965584 -20.042171
16690000000 -21.754639 -52.332211 -1.0851655 -116.55765 -1.0937164 -116.54407 -21.916086 -20.107622
16700000000 -21.736708 -52.266586 -1.0859855 -116.63144 -1.0932035 -116.62418 -21.8787 -20.146114
16710000000 -21.718138 -52.263371 -1.0869535 -116.70552 -1.0933784 -116.68787 -21.837675 -20.18479
16720000000 -21.701485 -52.248749 -1.0868086 -116.77575 -1.0941926 -116.76333 -21.806646 -20.096746
16730000000 -21.668283 -52.397987 -1.0877645 -116.8517 -1.0955542 -116.83299 -21.77091 -20.034676
16740000000 -21.64814 -52.41806 -1.0882351 -116.91775 -1.095353 -116.90694 -21.746208 -20.012949
16750000000 -21.625282 -52.509155 -1.0884569 -116.99612 -1.0965275 -116.97882 -21.722994 -20.005978
16760000000 -21.607952 -52.640308 -1.0892788 -117.05997 -1.0973442 -117.05168 -21.700947 -20.051434
16770000000 -21.585573 -52.78854 -1.0894345 -117.13015 -1.0984567 -117.12428 -21.681002 -20.110336
16780000000 -21.561836 -52.939259 -1.0901781 -117.20406 -1.0983667 -117.19794 -21.644663 -20.188635
16790000000 -21.526815 -53.0578 -1.0909554 -117.27998 -1.0978042 -117.26456 -21.614559 -20.319538
16800000000 -21.485991 -53.200676 -1.0911903 -117.34998 -1.0989192 -117.34184 -21.57045 -20.393381
16810000000 -21.44585 -53.270405 -1.0915798 -117.42199 -1.0993706 -117.41129 -21.525486 -20.439796
16820000000 -21.396191 -53.248348 -1.091893 -117.49545 -1.0992616 -117.48786 -21.478592 -20.424898
16830000000 -21.348814 -53.19339 -1.0922754 -117.57116 -1.0999959 -117.55887 -21.427559 -20.32901
16840000000 -21.293859 -53.105 -1.0919735 -117.64838 -1.0995637 -117.63657 -21.371878 -20.262096
16850000000 -21.242605 -53.087132 -1.0926749 -117.71973 -1.1001029 -117.70804 -21.337114 -20.19298
16860000000 -21.204868 -53.011528 -1.0935951 -117.79585 -1.100389 -117.78122 -21.302912 -20.094648
16870000000 -21.168526 -52.920086 -1.0934113 -117.86438 -1.1003363 -117.85634 -21.285295 -20.014219
16880000000 -21.133057 -52.798359 -1.0930737 -117.93908 -1.1016766 -117.92755 -21.274839 -19.89053
16890000000 -21.10537 -52.740139 -1.0945123 -118.00729 -1.1017289 -117.99865 -21.267105 -19.968224
16900000000 -21.099773 -52.646595 -1.094048 -118.07828 -1.1024262 -118.06786 -21.262894 -20.035231
16910000000 -21.082073 -52.676678 -1.0947907 -118.14194 -1.1024315 -118.1367 -21.266468 -20.218792
16920000000 -21.081232 -52.670654 -1.094449 -118.21979 -1.1030675 -118.20834 -21.252169 -20.369915
16930000000 -21.081352 -52.683067 -1.0946639 -118.29163 -1.1032805 -118.2768 -21.24157 -20.543842
16940000000 -21.069426 -52.673031 -1.0956538 -118.36382 -1.1028353 -118.34885 -21.222473 -20.739368
16950000000 -21.06352 -52.687607 -1.0953873 -118.43501 -1.1025994 -118.42224 -21.192541 -20.824066
16960000000 -21.046921 -52.696926 -1.0952111 -118.50356 -1.1028924 -118.49399 -21.170506 -20.898878
16970000000 -21.034563 -52.744007 -1.0951618 -118.57944 -1.1029608 -118.5695 -21.136368 -20.869484
16980000000 -21.018259 -52.777233 -1.0951858 -118.65492 -1.1031076 -118.64014 -21.110598 -20.79928
16990000000 -21.002384 -52.809277 -1.0957887 -118.7237 -1.1035428 -118.71317 -21.082747 -20.758118
17000000000 -20.983011 -52.809689 -1.0951988 -118.79106 -1.1039454 -118.79034 -21.053682 -20.638823
17010000000 -20.958693 -52.848625 -1.0957621 -118.86177 -1.1041976 -118.86018 -21.034796 -20.526745
17020000000 -20.932549 -52.846073 -1.0964235 -118.93298 -1.1037631 -118.9313 -21.029987 -20.524864
17030000000 -20.901051 -52.923412 -1.0963218 -119.00726 -1.1044631 -119.00111 -21.017101 -20.55722
17040000000 -20.880346 -52.882175 -1.0971053 -119.08086 -1.1043699 -119.07696 -21.003067 -20.643459
17050000000 -20.854879 -52.934055 -1.0975345 -119.15081 -1.1044207 -119.14345 -21.000597 -20.72065
17060000000 -20.828714 -52.886898 -1.0977458 -119.2209 -1.1049148 -119.21911 -20.981863 -20.885227
17070000000 -20.805754 -52.883499 -1.0978714 -119.29419 -1.1056005 -119.28801 -20.949289 -21.080606
17080000000 -20.775023 -52.817364 -1.0982181 -119.36893 -1.1065656 -119.36691 -20.907106 -21.203318
17090000000 -20.751764 -52.819054 -1.0984771 -119.44519 -1.1058991 -119.43868 -20.870226 -21.33419
17100000000 -20.727606 -52.738865 -1.0985411 -119.5199 -1.1055892 -119.50591 -20.827484 -21.43733
17110000000 -20.701647 -52.710838 -1.0987445 -119.59115 -1.106057 -119.58138 -20.784744 -21.477791
17120000000 -20.668051 -52.651615 -1.099281 -119.66254 -1.1067029 -119.65189 -20.735626 -21.413734
17130000000 -20.630878 -52.656582 -1.1002927 -119.73738 -1.1071872 -119.7315 -20.701164 -21.385254
17140000000 -20.603912 -52.603504 -1.1003817 -119.81126 -1.1083515 -119.80386 -20.668446 -21.297543
17150000000 -20.580805 -52.564228 -1.1007609 -119.88264 -1.1085105 -119.87321 -20.647556 -21.218267
17160000000 -20.549391 -52.641788 -1.1014287 -119.95842 -1.1090609 -119.94034 -20.627834 -21.098022
17170000000 -20.521811 -52.595959 -1.1012275 -120.02645 -1.1091617 -120.01659 -20.621742 -21.083979
17180000000 -20.50135 -52.588459 -1.1016169 -120.10546 -1.1096951 -120.09196 -20.597498 -21.011658
17190000000 -20.47987 -52.628445 -1.102553 -120.1757 -1.110363 -120.15576 -20.592106 -21.049009
17200000000 -20.463884 -52.603165 -1.102547 -120.24327 -1.110263 -120.23782 -20.582579 -21.038631
17210000000 -20.455065 -52.641602 -1.1031129 -120.31936 -1.1106141 -120.30875 -20.562944 -21.053677
17220000000 -20.448336 -52.556019 -1.103133 -120.38792 -1.111186 -120.37976 -20.541842 -21.097244
17230000000 -20.434507 -52.487869 -1.1028394 -120.45966 -1.1107879 -120.44945 -20.530733 -21.113644
17240000000 -20.428896 -52.398998 -1.1036923 -120.53648 -1.1103767 -120.52232 -20.512964 -21.059542
17250000000 -20.415962 -52.351971 -1.1022611 -120.60236 -1.1110954 -120.59708 -20.50082 -21.058567
17260000000 -20.403915 -52.286541 -1.1035582 -120.67192 -1.1110754 -120.66916 -20.494844 -21.0371
17270000000 -20.401306 -52.251179 -1.1037303 -120.74886 -1.1112663 -120.7373 -20.492916 -21.025534
17280000000 -20.398428 -52.282661 -1.1035682 -120.81897 -1.1110406 -120.80768 -20.489992 -21.008463
17290000000 -20.391638 -52.302628 -1.1035782 -120.89191 -1.1115842 -120.87824 -20.498638 -21.080004
17300000000 -20.39418 -52.392052 -1.1041375 -120.96136 -1.111594 -120.94714 -20.492496 -21.129511
17310000000 -20.384542 -52.519386 -1.1047161 -121.03475 -1.1125232 -121.02072 -20.485655 -21.24305
17320000000 -20.389448 -52.697834 -1.1042614 -121.105 -1.1131409 -121.0962 -20.468 -21.338039
17330000000 -20.376959 -52.888004 -1.106393 -121.17738 -1.1131079 -121.16425 -20.441099 -21.465586
17340000000 -20.369062 -53.051453 -1.1052072 -121.25104 -1.1141084 -121.24497 -20.418249 -21.559069
17350000000 -20.35236 -53.157848 -1.106015 -121.3216 -1.114282 -121.31448 -20.391161 -21.58856
17360000000 -20.323845 -53.248146 -1.1067439 -121.39604 -1.1136214 -121.38042 -20.365915 -21.595261
17370000000 -20.290037 -53.271053 -1.1074607 -121.46653 -1.1138418 -121.46071 -20.344614 -21.558804
17380000000 -20.263159 -53.301838 -1.1074694 -121.54203 -1.115466 -121.53475 -20.334766 -21.520025
17390000000 -20.236668 -53.232006 -1.1069908 -121.61332 -1.1155684 -121.60369 -20.337706 -21.454435
17400000000 -20.211477 -53.180519 -1.1073449 -121.68517 -1.1152129 -121.67544 -20.345804 -21.374548
17410000000 -20.185938 -53.06863 -1.1077738 -121.74894 -1.1144394 -121.7487 -20.353113 -21.339958
17420000000 -20.169764 -52.921295 -1.1069908 -121.82424 -1.1148401 -121.81571 -20.352707 -21.423832
17430000000 -20.157492 -52.883106 -1.1075076 -121.89597 -1.1160038 -121.88489 -20.351646 -21.549547
17440000000 -20.15407 -52.82196 -1.1072844 -121.96378 -1.1162277 -121.95394 -20.352188 -21.734108
17450000000 -20.153135 -52.724712 -1.1083244 -122.03709 -1.1169156 -122.0299 -20.330673 -21.920246
17460000000 -20.142788 -52.672813 -1.1085954 -122.11066 -1.1163338 -122.09859 -20.310453 -22.044621
17470000000 -20.134146 -52.623379 -1.1095692 -122.18417 -1.1166823 -122.17399 -20.27449 -22.208
17480000000 -20.122042 -52.64584 -1.1094375 -122.26017 -1.117667 -122.24748 -20.230705 -22.28092
17490000000 -20.115843 -52.69899 -1.1102604 -122.33337 -1.117522 -122.32433 -20.200626 -22.276672
17500000000 -20.095482 -52.677784 -1.1094812 -122.40485 -1.1186491 -122.39439 -20.168047 -22.177994
17510000000 -20.090574 -52.699291 -1.1101357 -122.47927 -1.1173043 -122.47091 -20.140266 -21.99132
17520000000 -20.077154 -52.693279 -1.1099913 -122.55299 -1.1179391 -122.54544 -20.125494 -21.806425
17530000000 -20.068703 -52.656864 -1.1098779 -122.61823 -1.1184953 -122.61311 -20.134104 -21.621208
17540000000 -20.061794 -52.657524 -1.1091326 -122.69542 -1.1178551 -122.68906 -20.141102 -21.494282
17550000000 -20.0679 -52.649235 -1.1094271 -122.76317 -1.11745 -122.75928 -20.159691 -21.410601
17560000000 -20.069118 -52.646862 -1.1087648 -122.83515 -1.1175957 -122.82281 -20.186647 -21.440861
17570000000 -20.077169 -52.714157 -1.1095277 -122.9044 -1.1177812 -122.89749 -20.206066 -21.502487
17580000000 -20.082771 -52.741093 -1.1097968 -122.97783 -1.117677 -122.9621 -20.219624 -21.681908
17590000000 -20.086203 -52.827271 -1.1105285 -123.04467 -1.117741 -123.03857 -20.210361 -21.87221
17600000000 -20.095728 -52.932484 -1.1106104 -123.11166 -1.1175725 -123.10474 -20.192089 -22.049141
17610000000 -20.090338 -53.080078 -1.1105776 -123.18912 -1.1179091 -123.1776 -20.165602 -22.186668
17620000000 -20.080406 -53.154682 -1.1113822 -123.25616 -1.1183913 -123.25612 -20.123964 -22.285219
17630000000 -20.058723 -53.262417 -1.1115013 -123.33691 -1.1177503 -123.32204 -20.08497 -22.246304
17640000000 -20.044086 -53.403358 -1.112148 -123.40365 -1.11833 -123.39756 -20.051903 -22.164068
17650000000 -20.023371 -53.454697 -1.1120962 -123.48329 -1.1174409 -123.46715 -20.032995 -22.021257
17660000000 -19.99909 -53.523876 -1.1114739 -123.55363 -1.1195092 -123.54493 -20.015392 -21.835505
17670000000 -19.971001 -53.559448 -1.1112977 -123.62484 -1.1187624 -123.6192 -20.025278 -21.652534
17680000000 -19.951496 -53.572208 -1.1115454 -123.69856 -1.1187479 -123.69308 -20.046385 -21.567266
17690000000 -19.934698 -53.52813 -1.1125988 -123.769 -1.1182563 -123.75777 -20.073711 -21.513947
17700000000 -19.922264 -53.524689 -1.1122948 -123.83869 -1.1187905 -123.82645 -20.104481 -21.600372
17710000000 -19.918543 -53.530216 -1.1125804 -123.90643 -1.1195434 -123.89478 -20.134701 -21.746353
17720000000 -19.913403 -53.496685 -1.1129105 -123.97327 -1.1199465 -123.97139 -20.152184 -22.092344
17730000000 -19.904449 -53.438267 -1.1132895 -124.0439 -1.1207505 -124.04416 -20.151752 -22.424978
17740000000 -19.907156 -53.442314 -1.1134076 -124.12349 -1.1211305 -124.10654 -20.127035 -22.747438
17750000000 -19.898619 -53.436394 -1.1144959 -124.19113 -1.1215142 -124.18415 -20.101362 -23.003382
17760000000 -19.901917 -53.353382 -1.1138846 -124.26385 -1.1219482 -124.25535 -20.076492 -23.135414
17770000000 -19.890722 -53.327507 -1.1150744 -124.33238 -1.1233424 -124.32789 -20.02685 -23.260221
17780000000 -19.89039 -53.323116 -1.1150075 -124.41621 -1.1224457 -124.4034 -19.99415 -23.186907
17790000000 -19.890554 -53.305824 -1.1153498 -124.48738 -1.122985 -124.47787 -19.976604 -23.035372
17800000000 -19.884199 -53.291969 -1.115227 -124.56026 -1.1233971 -124.55209 -19.955341 -22.837648
17810000000 -19.889399 -53.259056 -1.1154225 -124.63448 -1.1228784 -124.61738 -19.969294 -22.677584
17820000000 -19.893112 -53.38599 -1.1160989 -124.70496 -1.1228033 -124.68927 -19.973869 -22.489164
17830000000 -19.89222 -53.417065 -1.1162337 -124.77701 -1.1232318 -124.76586 -20.000668 -22.44528
17840000000 -19.898174 -53.541321 -1.116852 -124.84889 -1.1229099 -124.83572 -20.021051 -22.48468
17850000000 -19.894135 -53.611816 -1.1160885 -124.9125 -1.1236596 -124.90675 -20.025589 -22.614212
17860000000 -19.880823 -53.688225 -1.1166341 -124.9865 -1.1234504 -124.97417 -20.027987 -22.747463
17870000000 -19.874447 -53.705364 -1.1170746 -125.06228 -1.1234508 -125.04197 -20.009802 -22.984922
17880000000 -19.853928 -53.721077 -1.1161461 -125.13049 -1.1244255 -125.11944 -19.984659 -23.214169
17890000000 -19.833735 -53.720825 -1.1173927 -125.20764 -1.1249678 -125.19039 -19.94076 -23.350094
17900000000 -19.808641 -53.718292 -1.1181364 -125.27666 -1.1253103 -125.26301 -19.900505 -23.460703
17910000000 -19.780506 -53.712097 -1.118835 -125.35098 -1.1253542 -125.33829 -19.857414 -23.394123
17920000000 -19.76948 -53.662907 -1.119386 -125.42256 -1.1259685 -125.41521 -19.822868 -23.229977
17930000000 -19.764767 -53.620472 -1.1186585 -125.49717 -1.1269045 -125.48892 -19.800505 -23.061131
17940000000 -19.756422 -53.638241 -1.1191924 -125.57365 -1.1264334 -125.56454 -19.79554 -22.773457
17950000000 -19.75975 -53.609673 -1.118487 -125.64472 -1.1267018 -125.63557 -19.808441 -22.573381
17960000000 -19.772535 -53.600639 -1.118276 -125.71055 -1.1263489 -125.71085 -19.838444 -22.431845
17970000000 -19.78643 -53.607971 -1.1192902 -125.7809 -1.1264005 -125.77901 -19.872303 -22.339582
17980000000 -19.800674 -53.566387 -1.1187603 -125.85686 -1.1262287 -125.85052 -19.915634 -22.315948
17990000000 -19.809301 -53.519512 -1.1183926 -125.92979 -1.1268455 -125.92144 -19.957497 -22.389589
18000000000 -19.822361 -53.545353 -1.1186197 -126.00334 -1.1271998 -125.99369 -19.98595 -22.56517
18010000000 -19.833982 -53.530182 -1.1189545 -126.0718 -1.1257775 -126.05525 -20.008373 -22.742918
18020000000 -19.843695 -53.503639 -1.1191211 -126.13932 -1.1259604 -126.13559 -20.009212 -23.024891
18030000000 -19.853447 -53.437313 -1.1185536 -126.20152 -1.125482 -126.20162 -20.005926 -23.223873
18040000000 -19.859865 -53.444664 -1.1186745 -126.27269 -1.1252077 -126.26651 -19.996206 -23.365643
18050000000 -19.856646 -53.40646 -1.1188809 -126.3371 -1.1263522 -126.33755 -19.971464 -23.443897
18060000000 -19.853632 -53.438389 -1.1183852 -126.41148 -1.1262723 -126.40289 -19.955315 -23.480793
18070000000 -19.8536 -53.460892 -1.1192631 -126.47939 -1.1258574 -126.47958 -19.932926 -23.525331
18080000000 -19.860008 -53.525166 -1.1188658 -126.55092 -1.1261797 -126.54839 -19.925547 -23.454367
18090000000 -19.845295 -53.58147 -1.1183517 -126.62394 -1.1253706 -126.6171 -19.932688 -23.430513
18100000000 -19.842293 -53.596081 -1.1189144 -126.70074 -1.1261891 -126.68816 -19.936226 -23.372366
18110000000 -19.830584 -53.700855 -1.1187831 -126.76471 -1.1261238 -126.7524 -19.943445 -23.390394
18120000000 -19.828762 -53.784203 -1.118484 -126.83757 -1.1266571 -126.83462 -19.955206 -23.530327
18130000000 -19.82662 -53.810341 -1.1186846 -126.9135 -1.1263757 -126.89601 -19.962915 -23.667894
18140000000 -19.816828 -53.865681 -1.1186323 -126.98223 -1.1273015 -126.9735 -19.966602 -23.759102
18150000000 -19.816875 -53.864994 -1.1183939 -127.04891 -1.1265622 -127.04513 -19.966734 -23.949049
18160000000 -19.817154 -53.860161 -1.1189134 -127.12672 -1.1270565 -127.11987 -19.948622 -24.048197
18170000000 -19.816402 -53.772858 -1.1191944 -127.20139 -1.1277676 -127.19653 -19.93409 -24.069332
18180000000 -19.818737 -53.736256 -1.1194034 -127.27293 -1.1276243 -127.26268 -19.919157 -24.089218
18190000000 -19.823269 -53.654613 -1.1200835 -127.34718 -1.127781 -127.33192 -19.90587 -24.008528
18200000000 -19.837013 -53.576801 -1.1206993 -127.4114 -1.1274508 -127.40311 -19.904758 -23.937113
18210000000 -19.850552 -53.601086 -1.1208735 -127.48533 -1.1280992 -127.48354 -19.917189 -23.82021
18220000000 -19.865587 -53.587273 -1.1204332 -127.55913 -1.1283835 -127.55717 -19.935369 -23.710894
18230000000 -19.882235 -53.631508 -1.1203669 -127.63036 -1.1276193 -127.62457 -19.964371 -23.686752
18240000000 -19.893732 -53.760532 -1.1211925 -127.71194 -1.1284366 -127.70406 -19.989479 -23.64365
18250000000 -19.913464 -53.864265 -1.121098 -127.77913 -1.1281506 -127.77225 -20.006807 -23.760508
18260000000 -19.917143 -53.927776 -1.1216435 -127.85139 -1.128547 -127.84299 -20.018297 -23.820145
18270000000 -19.921412 -54.022568 -1.1216985 -127.92196 -1.129254 -127.91453 -20.031153 -23.978661
18280000000 -19.91391 -54.057095 -1.1213101 -127.9967 -1.1291264 -127.98731 -20.032019 -24.073629
18290000000 -19.905907 -54.103905 -1.1218004 -128.06006 -1.1288551 -128.06197 -20.018839 -24.206932
18300000000 -19.900686 -54.157532 -1.1216054 -128.13138 -1.1295521 -128.13039 -20.013699 -24.267376
18310000000 -19.89253 -54.145432 -1.122035 -128.20378 -1.1294191 -128.20287 -19.991625 -24.256229
18320000000 -19.898417 -54.132568 -1.1224017 -128.27603 -1.1306971 -128.27419 -19.982805 -24.217558
18330000000 -19.897377 -54.148941 -1.1231071 -128.34775 -1.1306868 -128.34747 -19.990574 -24.117279
18340000000 -19.899727 -54.11623 -1.1237763 -128.42677 -1.1312211 -128.41672 -19.98724 -24.003977
18350000000 -19.91025 -54.08194 -1.1234953 -128.49124 -1.1313541 -128.4877 -19.997538 -23.838453
18360000000 -19.917404 -54.079773 -1.1239332 -128.56653 -1.1316074 -128.55675 -20.030504 -23.777002
18370000000 -19.929306 -54.085987 -1.1241311 -128.6378 -1.132077 -128.63121 -20.045214 -23.751125
18380000000 -19.947062 -54.005348 -1.1249399 -128.71297 -1.1322665 -128.70103 -20.082394 -23.805317
18390000000 -19.954174 -54.012848 -1.1249819 -128.7887 -1.1323061 -128.77393 -20.104851 -23.907932
18400000000 -19.948275 -53.992531 -1.1249259 -128.85698 -1.132831 -128.84929 -20.122839 -24.086359
18410000000 -19.944027 -53.953766 -1.1254085 -128.92445 -1.1328706 -128.9162 -20.120882 -24.287851
18420000000 -19.942524 -53.971516 -1.1250908 -128.98886 -1.1325527 -128.99081 -20.105671 -24.503395
18430000000 -19.939728 -53.962181 -1.1257749 -129.06023 -1.1331109 -129.05162 -20.086147 -24.649004
18440000000 -19.934578 -53.956581 -1.1267488 -129.1308 -1.1334237 -129.11633 -20.062908 -24.757622
18450000000 -19.932734 -53.915218 -1.1260462 -129.19858 -1.1336999 -129.18414 -20.050646 -24.767841
18460000000 -19.935419 -53.944515 -1.1259996 -129.26671 -1.1334109 -129.25676 -20.033945 -24.728722
18470000000 -19.93648 -53.946812 -1.1266212 -129.33746 -1.1337093 -129.32901 -20.028687 -24.559191
18480000000 -19.945293 -54.031281 -1.1266636 -129.41158 -1.1335138 -129.40115 -20.034441 -24.490095
18490000000 -19.963223 -54.055653 -1.1267508 -129.48463 -1.1346461 -129.47662 -20.062523 -24.354342
18500000000 -19.964514 -54.047199 -1.1258239 -129.55652 -1.133498 -129.5459 -20.101315 -24.322941
18510000000 -19.985739 -54.034973 -1.1260436 -129.63429 -1.1340111 -129.6259 -20.154514 -24.359983
18520000000 -19.990906 -54.027996 -1.1257933 -129.70451 -1.1338693 -129.70251 -20.203865 -24.501591
18530000000 -20.004929 -54.086136 -1.126075 -129.78018 -1.1335521 -129.77853 -20.261137 -24.716301
18540000000 -20.012175 -54.116425 -1.1250043 -129.854 -1.1323166 -129.85338 -20.295698 -25.032127
18550000000 -20.024515 -54.146515 -1.1250409 -129.92773 -1.1327621 -129.91379 -20.308619 -25.41814
18560000000 -20.025349 -54.153851 -1.1246978 -129.99583 -1.130949 -129.9864 -20.316328 -25.794075
18570000000 -20.012819 -54.173622 -1.1248276 -130.06091 -1.131936 -130.05173 -20.304356 -26.106007
18580000000 -20.016237 -54.209011 -1.1239748 -130.12854 -1.1320333 -130.12193 -20.276926 -26.335089
18590000000 -20.006979 -54.188732 -1.1245925 -130.19858 -1.1316705 -130.1886 -20.246082 -26.472769
18600000000 -19.997675 -54.204643 -1.1244365 -130.26781 -1.1325555 -130.25882 -20.208017 -26.514956
18610000000 -20.005131 -54.084919 -1.1250886 -130.33948 -1.132755 -130.33626 -20.185545 -26.460232
18620000000 -20.002943 -54.062241 -1.1254256 -130.4095 -1.134475 -130.401 -20.170485 -26.355368
18630000000 -20.003265 -54.005241 -1.1262738 -130.48036 -1.1338294 -130.47256 -20.16737 -26.263916
18640000000 -20.009251 -53.98798 -1.1273994 -130.55978 -1.1352583 -130.54393 -20.178967 -26.177946
18650000000 -20.018425 -53.985382 -1.1271642 -130.64214 -1.1348797 -130.61786 -20.206083 -26.09882
18660000000 -20.030678 -53.979507 -1.1268253 -130.70496 -1.1348219 -130.69843 -20.232189 -26.158327
18670000000 -20.046919 -54.004616 -1.1278394 -130.78249 -1.1348656 -130.76994 -20.255058 -26.261698
18680000000 -20.060961 -54.080093 -1.1271206 -130.85471 -1.1349994 -130.84723 -20.268114 -26.429071
18690000000 -20.06426 -54.175495 -1.1262448 -130.92046 -1.1349436 -130.91566 -20.271292 -26.67112
18700000000 -20.07457 -54.280003 -1.1266857 -130.9911 -1.1349126 -130.98958 -20.264256 -26.823107
18710000000 -20.075397 -54.362247 -1.1268638 -131.06525 -1.1345234 -131.05721 -20.241957 -26.988695
18720000000 -20.072464 -54.397629 -1.1275015 -131.13651 -1.1350121 -131.12848 -20.212191 -27.090351
18730000000 -20.070017 -54.490688 -1.1280347 -131.20625 -1.1350801 -131.19392 -20.189068 -27.115997
18740000000 -20.062372 -54.540901 -1.1284127 -131.27342 -1.1363271 -131.26788 -20.169945 -27.073641
18750000000 -20.062132 -54.572514 -1.1288484 -131.345 -1.1358843 -131.33226 -20.150625 -26.971657
18760000000 -20.061285 -54.591824 -1.129585 -131.41727 -1.1372551 -131.41499 -20.157084 -26.793419
18770000000 -20.069784 -54.620255 -1.1296854 -131.49777 -1.1375241 -131.49277 -20.175932 -26.664415
18780000000 -20.086849 -54.636692 -1.1299335 -131.57278 -1.1369947 -131.56706 -20.212738 -26.456133
18790000000 -20.100536 -54.628578 -1.1292183 -131.64751 -1.1375871 -131.64046 -20.260643 -26.42741
18800000000 -20.118481 -54.624809 -1.129342 -131.7263 -1.137514 -131.71909 -20.303064 -26.378252
18810000000 -20.13615 -54.661999 -1.1299745 -131.80379 -1.1376903 -131.79903 -20.346722 -26.526281
18820000000 -20.157816 -54.681767 -1.1295575 -131.87402 -1.1374218 -131.87187 -20.383551 -26.683838
18830000000 -20.170736 -54.745445 -1.1297082 -131.9511 -1.1369002 -131.93875 -20.404173 -26.841043
18840000000 -20.184807 -54.833401 -1.1289189 -132.01984 -1.1364108 -132.02176 -20.419622 -27.110069
18850000000 -20.190958 -54.885071 -1.1291949 -132.09349 -1.1366638 -132.09065 -20.422119 -27.370401
18860000000 -20.183804 -54.953613 -1.1296451 -132.16411 -1.1367774 -132.15685 -20.415173 -27.608177
18870000000 -20.180204 -55.023556 -1.129669 -132.23471 -1.1366295 -132.23286 -20.409723 -27.819588
18880000000 -20.169897 -55.018318 -1.1301404 -132.30779 -1.1376573 -132.29599 -20.39732 -27.931322
18890000000 -20.162918 -55.008942 -1.130847 -132.37589 -1.1383517 -132.36766 -20.385452 -28.096806
18900000000 -20.15769 -54.946655 -1.1311761 -132.44446 -1.1390387 -132.43434 -20.377645 -28.17458
18910000000 -20.160236 -54.931545 -1.1324677 -132.5166 -1.1391134 -132.50186 -20.37994 -28.213472
18920000000 -20.169533 -54.938759 -1.1319607 -132.59308 -1.1401184 -132.57652 -20.38596 -28.294418
18930000000 -20.172218 -54.868984 -1.1322228 -132.66042 -1.1399938 -132.6521 -20.399382 -28.369614
18940000000 -20.185844 -54.889359 -1.1335582 -132.73611 -1.1399113 -132.7235 -20.400274 -28.469097
18950000000 -20.197208 -54.981178 -1.1328639 -132.80801 -1.1399547 -132.79663 -20.413189 -28.613995
18960000000 -20.210491 -55.073967 -1.1330816 -132.8793 -1.1395354 -132.86804 -20.408409 -28.780361
18970000000 -20.213142 -55.178627 -1.1319702 -132.95183 -1.1395094 -132.9413 -20.411272 -28.939426
18980000000 -20.21104 -55.299751 -1.1319695 -133.02254 -1.1395098 -133.00655 -20.406187 -29.105629
18990000000 -20.214144 -55.441704 -1.1319849 -133.09219 -1.1395293 -133.08141 -20.393429 -29.27384
19000000000 -20.195608 -55.54781 -1.1327645 -133.16315 -1.1405706 -133.14716 -20.376434 -29.3869
19010000000 -20.183666 -55.620201 -1.1325557 -133.23198 -1.1400383 -133.21751 -20.361324 -29.438379
19020000000 -20.175491 -55.636272 -1.1325128 -133.2972 -1.1402347 -133.28552 -20.355659 -29.503149
19030000000 -20.156137 -55.619045 -1.1321983 -133.36446 -1.1403862 -133.35416 -20.346567 -29.548519
19040000000 -20.146791 -55.487854 -1.1330527 -133.43274 -1.140152 -133.42632 -20.35092 -29.513512
19050000000 -20.140488 -55.365898 -1.1330255 -133.51254 -1.1405112 -133.49091 -20.352324 -29.514549
19060000000 -20.152405 -55.261135 -1.1347543 -133.57991 -1.1408757 -133.57219 -20.366909 -29.554775
19070000000 -20.175051 -55.211113 -1.1338687 -133.6512 -1.1416156 -133.64314 -20.388685 -29.64521
19080000000 -20.196833 -55.153881 -1.1340656 -133.72798 -1.1417042 -133.71706 -20.405064 -29.72332
19090000000 -20.220446 -55.155518 -1.1345332 -133.79836 -1.1416682 -133.79744 -20.418898 -29.827463
19100000000 -20.250017 -55.293777 -1.1341571 -133.87801 -1.14091 -133.86873 -20.429235 -29.94314
19110000000 -20.269119 -55.396561 -1.134194 -133.94724 -1.1414944 -133.9404 -20.440264 -29.99366
19120000000 -20.287313 -55.488667 -1.134245 -134.02478 -1.1409312 -134.01518 -20.446394 -30.137152
19130000000 -20.28232 -55.618275 -1.1341892 -134.09264 -1.1423813 -134.0864 -20.436434 -30.19891
19140000000 -20.282282 -55.721561 -1.1345718 -134.16704 -1.1421429 -134.15649 -20.434618 -30.325251
19150000000 -20.268795 -55.813534 -1.1349419 -134.23969 -1.1415132 -134.22966 -20.434778 -30.404308
19160000000 -20.259356 -55.847469 -1.1349628 -134.31039 -1.1430266 -134.29959 -20.442513 -30.552748
19170000000 -20.246464 -55.888912 -1.1349691 -134.383 -1.1429508 -134.37726 -20.437735 -30.561853
19180000000 -20.239267 -55.872944 -1.1360084 -134.45291 -1.1430596 -134.44467 -20.427935 -30.695051
19190000000 -20.236006 -55.844982 -1.1368027 -134.52867 -1.1431408 -134.51596 -20.426378 -30.816328
19200000000 -20.236578 -55.831257 -1.1368245 -134.60252 -1.1428545 -134.58762 -20.431339 -30.884932
19210000000 -20.243813 -55.888805 -1.1361533 -134.6736 -1.1432375 -134.66414 -20.4205 -31.055586
19220000000 -20.252853 -55.925762 -1.1364284 -134.74042 -1.1434749 -134.73311 -20.412426 -31.174257
19230000000 -20.261543 -55.972969 -1.1374717 -134.81578 -1.1442844 -134.8 -20.405378 -31.196251
19240000000 -20.270611 -56.042702 -1.1361445 -134.88094 -1.1445646 -134.87642 -20.395943 -31.3438
19250000000 -20.2673 -56.135921 -1.137099 -134.95575 -1.144446 -134.9427 -20.388247 -31.406118
19260000000 -20.259258 -56.262814 -1.1368976 -135.02652 -1.1449252 -135.01263 -20.382097 -31.499565
19270000000 -20.251207 -56.350231 -1.1372137 -135.0947 -1.1446203 -135.08034 -20.375698 -31.610962
19280000000 -20.234724 -56.341595 -1.1380149 -135.16223 -1.1450953 -135.15508 -20.380869 -31.7111
19290000000 -20.224653 -56.432514 -1.1379272 -135.24011 -1.1454576 -135.22426 -20.374371 -31.820049
19300000000 -20.213284 -56.433937 -1.137514 -135.31323 -1.1452979 -135.29839 -20.374659 -31.919203
19310000000 -20.202129 -56.470364 -1.138209 -135.37878 -1.1455532 -135.37357 -20.378536 -32.131943
19320000000 -20.206223 -56.379311 -1.1383055 -135.44673 -1.1463039 -135.44659 -20.37719 -32.210709
19330000000 -20.210972 -56.349495 -1.1390632 -135.52614 -1.146259 -135.51414 -20.364983 -32.365234
19340000000 -20.206997 -56.331818 -1.1385967 -135.59578 -1.1472473 -135.57817 -20.355316 -32.4842
19350000000 -20.222736 -56.295914 -1.1393396 -135.66316 -1.1460946 -135.65492 -20.341848 -32.534256
19360000000 -20.239557 -56.348934 -1.1386437 -135.73969 -1.1466243 -135.72781 -20.32946 -32.634975
19370000000 -20.252592 -56.349991 -1.1397185 -135.80411 -1.1466062 -135.79527 -20.328827 -32.605545
19380000000 -20.268955 -56.452042 -1.1395509 -135.88545 -1.1467754 -135.86601 -20.328012 -32.603012
19390000000 -20.281013 -56.591072 -1.1393715 -135.95885 -1.1472912 -135.94167 -20.328911 -32.601658
19400000000 -20.284071 -56.755295 -1.1399029 -136.02638 -1.1481469 -136.00716 -20.351059 -32.630329
19410000000 -20.279165 -56.933163 -1.1401479 -136.09348 -1.1470441 -136.08414 -20.358624 -32.646725
19420000000 -20.270844 -57.075588 -1.1397461 -136.16458 -1.1473546 -136.15674 -20.367558 -32.765862
19430000000 -20.263948 -57.184772 -1.1405787 -136.24246 -1.1475099 -136.22644 -20.373426 -32.868393
19440000000 -20.251677 -57.326832 -1.1402193 -136.3063 -1.1472794 -136.30005 -20.379189 -33.068443
19450000000 -20.23757 -57.414005 -1.140294 -136.38048 -1.1471597 -136.37672 -20.38368 -33.21413
19460000000 -20.222305 -57.402412 -1.139939 -136.45125 -1.1478232 -136.4433 -20.369556 -33.40258
19470000000 -20.210941 -57.443962 -1.1396357 -136.52216 -1.1474981 -136.51633 -20.349823 -33.56937
19480000000 -20.208921 -57.427605 -1.1400732 -136.59648 -1.1469756 -136.58385 -20.325939 -33.698856
19490000000 -20.207924 -57.341698 -1.1404071 -136.66904 -1.1469122 -136.6505 -20.301994 -33.821461
19500000000 -20.213207 -57.32114 -1.1402317 -136.73972 -1.1478839 -136.72847 -20.291832 -33.796314
19510000000 -20.214306 -57.250488 -1.1405848 -136.81104 -1.1472871 -136.80058 -20.287193 -33.748272
19520000000 -20.225723 -57.316345 -1.1410518 -136.88193 -1.1478192 -136.87248 -20.289061 -33.754169
19530000000 -20.225864 -57.309258 -1.1409093 -136.95778 -1.1484207 -136.94563 -20.305685 -33.726517
19540000000 -20.233736 -57.307529 -1.142256 -137.02496 -1.1493127 -137.02232 -20.326841 -33.661026
19550000000 -20.248789 -57.290852 -1.1430737 -137.10378 -1.149394 -137.08501 -20.345842 -33.754562
19560000000 -20.253338 -57.330307 -1.143226 -137.17941 -1.1502427 -137.1678 -20.373732 -33.847843
19570000000 -20.256454 -57.314964 -1.1436737 -137.24811 -1.1506789 -137.24017 -20.390852 -34.097488
19580000000 -20.2637 -57.370216 -1.1428157 -137.32503 -1.1502987 -137.31503 -20.406199 -34.417717
19590000000 -20.267569 -57.40377 -1.1432862 -137.39853 -1.15051 -137.39142 -20.394524 -34.74334
19600000000 -20.274488 -57.503822 -1.1432314 -137.47322 -1.1504842 -137.46776 -20.38064 -35.11927
19610000000 -20.27537 -57.532417 -1.1422776 -137.54138 -1.1506904 -137.54395 -20.343296 -35.34214
19620000000 -20.26502 -57.552677 -1.1431491 -137.62062 -1.1491522 -137.60675 -20.292669 -35.525646
19630000000 -20.257391 -57.580311 -1.1431242 -137.68858 -1.1504961 -137.68124 -20.248634 -35.522091
19640000000 -20.247368 -57.708221 -1.1427487 -137.75803 -1.1506921 -137.75085 -20.203154 -35.466312
19650000000 -20.231873 -57.781155 -1.1429282 -137.82837 -1.151696 -137.81769 -20.164253 -35.313446
19660000000 -20.220924 -57.833031 -1.143546 -137.89671 -1.1518184 -137.8902 -20.12636 -35.132629
19670000000 -20.210131 -57.923119 -1.1440189 -137.96909 -1.1514759 -137.95741 -20.113657 -34.880257
19680000000 -20.200445 -58.025509 -1.1440357 -138.03268 -1.1519214 -138.02757 -20.111118 -34.679214
19690000000 -20.195707 -58.075752 -1.1454754 -138.10809 -1.1533877 -138.09238 -20.132013 -34.508846
19700000000 -20.192638 -58.107731 -1.1464856 -138.17796 -1.1529832 -138.16852 -20.162163 -34.478729
19710000000 -20.192829 -58.210342 -1.1467019 -138.24417 -1.1531962 -138.2384 -20.180906 -34.5555
19720000000 -20.202858 -58.230751 -1.1470599 -138.31557 -1.1537527 -138.31015 -20.20085 -34.71978
19730000000 -20.20998 -58.310154 -1.1464144 -138.38565 -1.1539613 -138.3864 -20.214615 -34.960865
19740000000 -20.226603 -58.354275 -1.1465408 -138.45828 -1.155147 -138.45634 -20.218094 -35.11861
19750000000 -20.240248 -58.43462 -1.1455324 -138.53162 -1.1531794 -138.52559 -20.214445 -35.344006
19760000000 -20.250797 -58.523808 -1.1457683 -138.60416 -1.1532561 -138.59839 -20.193483 -35.45882
19770000000 -20.269993 -58.638699 -1.1466979 -138.6777 -1.1541193 -138.67242 -20.166775 -35.449699
19780000000 -20.273911 -58.733391 -1.146284 -138.74638 -1.1539943 -138.73912 -20.149618 -35.406796
19790000000 -20.275253 -58.91972 -1.1462921 -138.81737 -1.1538091 -138.81169 -20.132076 -35.321262
19800000000 -20.284275 -59.096069 -1.146412 -138.88901 -1.1543469 -138.88121 -20.130617 -35.179901
19810000000 -20.281919 -59.332699 -1.1460365 -138.9648 -1.1541091 -138.95392 -20.137808 -35.018539
19820000000 -20.2796 -59.537556 -1.1462064 -139.03883 -1.1539366 -139.02565 -20.15794 -34.913074
19830000000 -20.270842 -59.731083 -1.1467505 -139.11035 -1.1538579 -139.10378 -20.192244 -34.903656
19840000000 -20.260141 -59.857834 -1.1457345 -139.18178 -1.1541557 -139.17442 -20.224501 -34.997208
19850000000 -20.249699 -59.920212 -1.1469015 -139.25705 -1.1550061 -139.24829 -20.248791 -35.131294
19860000000 -20.236687 -59.964924 -1.1470474 -139.33421 -1.1548764 -139.31447 -20.266462 -35.413086
19870000000 -20.223303 -59.930233 -1.1470155 -139.4015 -1.154272 -139.39502 -20.278189 -35.740704
19880000000 -20.206568 -59.857559 -1.1464478 -139.47368 -1.1542307 -139.46494 -20.264671 -36.066639
19890000000 -20.204973 -59.702328 -1.1473502 -139.54105 -1.1545671 -139.54407 -20.239071 -36.386692
19900000000 -20.19783 -59.584106 -1.1465131 -139.61263 -1.1549305 -139.60777 -20.209421 -36.634239
19910000000 -20.194908 -59.517498 -1.1468779 -139.69362 -1.1542523 -139.68349 -20.169558 -36.817326
19920000000 -20.206097 -59.509064 -1.1475275 -139.76857 -1.1544806 -139.74779 -20.13447 -36.800953
19930000000 -20.214895 -59.521431 -1.1474267 -139.83275 -1.1546204 -139.82294 -20.113031 -36.704693
19940000000 -20.220331 -59.634491 -1.1475292 -139.90878 -1.1551591 -139.8952 -20.096857 -36.6255
19950000000 -20.231033 -59.691784 -1.1480242 -139.97363 -1.1557194 -139.96893 -20.105019 -36.422802
19960000000 -20.245876 -59.850899 -1.1474968 -140.04878 -1.1552732 -140.03745 -20.117393 -36.332741
19970000000 -20.253275 -59.968243 -1.1491063 -140.12462 -1.1557451 -140.10748 -20.137783 -36.223534
19980000000 -20.258295 -60.090961 -1.1484585 -140.19191 -1.157478 -140.18132 -20.160709 -36.267902
19990000000 -20.258984 -60.194931 -1.1490932 -140.27145 -1.157408 -140.25565 -20.193434 -36.410591
20000000000 -20.256447 -60.253143 -1.1494817 -140.34239 -1.1570532 -140.33545 -20.207989 -36.689198
20010000000 -20.257181 -60.241783 -1.1497158 -140.41193 -1.1579832 -140.40991 -20.215261 -36.91629
20020000000 -20.251299 -60.18264 -1.1491455 -140.48795 -1.1583221 -140.48398 -20.19853 -37.239975
20030000000 -20.245533 -60.190891 -1.1502002 -140.56213 -1.1578892 -140.55644 -20.169586 -37.562344
20040000000 -20.240499 -60.181725 -1.1502244 -140.64398 -1.1576804 -140.62939 -20.124413 -37.785763
20050000000 -20.240362 -60.211819 -1.1502724 -140.70435 -1.1581103 -140.70015 -20.074379 -37.892174
20060000000 -20.241796 -60.340099 -1.1501739 -140.77393 -1.1588687 -140.76675 -20.023846 -37.835224
20070000000 -20.241274 -60.459038 -1.1502845 -140.8394 -1.1583685 -140.82874 -19.975807 -37.644978
20080000000 -20.249031 -60.579727 -1.1502043 -140.91101 -1.1585517 -140.89738 -19.940584 -37.382706
20090000000 -20.243044 -60.790619 -1.1500397 -140.97011 -1.1580501 -140.96703 -19.916693 -37.179359
20100000000 -20.244823 -60.936031 -1.1512198 -141.03798 -1.1578655 -141.03548 -19.918812 -36.852257
20110000000 -20.250992 -61.109722 -1.150854 -141.10802 -1.1596547 -141.10109 -19.934513 -36.590702
20120000000 -20.253691 -61.252419 -1.1509836 -141.17279 -1.1583462 -141.17613 -19.965073 -36.422916
20130000000 -20.255323 -61.323776 -1.1511456 -141.24524 -1.1597649 -141.24936 -19.99811 -36.377995
20140000000 -20.266527 -61.428761 -1.1509593 -141.31403 -1.1584333 -141.32016 -20.046967 -36.442394
20150000000 -20.268299 -61.420128 -1.1518683 -141.39249 -1.1586919 -141.38745 -20.089064 -36.528244
20160000000 -20.280598 -61.430202 -1.1519821 -141.45903 -1.1594406 -141.46925 -20.112637 -36.78566
20170000000 -20.293442 -61.452721 -1.1520044 -141.53651 -1.1591458 -141.539 -20.12553 -37.021862
20180000000 -20.302895 -61.497589 -1.1514492 -141.61403 -1.1592399 -141.6125 -20.13266 -37.294037
20190000000 -20.313967 -61.545536 -1.1511155 -141.68414 -1.1602193 -141.68501 -20.114714 -37.517872
20200000000 -20.318954 -61.59203 -1.1515633 -141.75333 -1.1598619 -141.75893 -20.098967 -37.615643
20210000000 -20.324812 -61.700508 -1.1530278 -141.82416 -1.1600634 -141.82031 -20.062973 -37.645229
20220000000 -20.339262 -61.858982 -1.1519096 -141.90022 -1.1599641 -141.89024 -20.046967 -37.590256
20230000000 -20.326351 -62.010502 -1.1531901 -141.96484 -1.1607503 -141.95738 -20.027245 -37.476929
20240000000 -20.329571 -62.272797 -1.1528391 -142.04121 -1.1606061 -142.03447 -20.023445 -37.324596
20250000000 -20.325277 -62.454262 -1.1524017 -142.10846 -1.1599079 -142.10545 -20.022175 -37.210228
20260000000 -20.308584 -62.643524 -1.152934 -142.18057 -1.1596222 -142.17207 -20.033815 -37.180054
20270000000 -20.304712 -62.76487 -1.1528273 -142.25117 -1.1605268 -142.2402 -20.062815 -37.163048
20280000000 -20.293707 -62.803024 -1.1529586 -142.32306 -1.1602933 -142.31297 -20.083952 -37.250462
20290000000 -20.283247 -62.80434 -1.1540022 -142.39383 -1.1606485 -142.38843 -20.107147 -37.361492
20300000000 -20.276402 -62.791222 -1.1537513 -142.46735 -1.1608707 -142.45656 -20.127993 -37.598415
20310000000 -20.271181 -62.67635 -1.1541227 -142.53995 -1.1595275 -142.53015 -20.130314 -37.852509
20320000000 -20.27976 -62.638908 -1.1544009 -142.61513 -1.1607492 -142.6097 -20.132156 -38.094112
20330000000 -20.282312 -62.525398 -1.1542294 -142.68611 -1.1615947 -142.67737 -20.122276 -38.395901
20340000000 -20.282488 -62.524475 -1.1555154 -142.76038 -1.1612308 -142.75209 -20.102879 -38.601982
20350000000 -20.297171 -62.562 -1.1549517 -142.82388 -1.1620095 -142.82671 -20.075945 -38.769207
20360000000 -20.304695 -62.671932 -1.1541595 -142.89977 -1.1616133 -142.89713 -20.046696 -38.853043
20370000000 -20.315756 -62.774227 -1.1548197 -142.97234 -1.1620402 -142.96443 -20.023264 -38.823334
20380000000 -20.325634 -62.870888 -1.1551446 -143.04303 -1.1618356 -143.04189 -20.003059 -38.75246
20390000000 -20.328272 -62.988518 -1.1539268 -143.11349 -1.1613032 -143.10715 -19.993534 -38.659954
20400000000 -20.335724 -63.153038 -1.1532611 -143.18835 -1.1623173 -143.18004 -19.987637 -38.468235
20410000000 -20.34227 -63.239979 -1.1534177 -143.26048 -1.1609582 -143.25052 -19.997351 -38.299896
20420000000 -20.353613 -63.351112 -1.1539032 -143.3278 -1.1607674 -143.32031 -20.008385 -38.175404
20430000000 -20.362366 -63.505421 -1.1537462 -143.40236 -1.1601129 -143.3862 -20.031776 -38.11145
20440000000 -20.379463 -63.530083 -1.1527466 -143.47328 -1.1611404 -143.47057 -20.05825 -38.024086
20450000000 -20.384514 -63.571571 -1.1536824 -143.54579 -1.1614858 -143.53639 -20.080328 -38.061024
20460000000 -20.390621 -63.614307 -1.1535852 -143.60902 -1.1612849 -143.61151 -20.107752 -38.112091
20470000000 -20.409477 -63.667515 -1.1537142 -143.69168 -1.16052 -143.67717 -20.117273 -38.252201
20480000000 -20.414505 -63.723038 -1.1549159 -143.76173 -1.1617693 -143.75682 -20.129017 -38.304665
20490000000 -20.425396 -63.734715 -1.1547602 -143.83737 -1.1617774 -143.83185 -20.136724 -38.476208
20500000000 -20.435595 -63.816929 -1.1559235 -143.91289 -1.1632501 -143.90767 -20.131227 -38.547573
20510000000 -20.424297 -63.941105 -1.1552185 -143.98427 -1.1618735 -143.97308 -20.135139 -38.725204
20520000000 -20.432734 -64.046906 -1.1549102 -144.0563 -1.1631807 -144.05333 -20.120052 -38.877621
20530000000 -20.437387 -64.136703 -1.1547035 -144.13133 -1.163448 -144.12897 -20.111113 -38.944382
20540000000 -20.437355 -64.25412 -1.1547461 -144.20522 -1.163337 -144.20447 -20.113653 -39.037933
20550000000 -20.448133 -64.342407 -1.1546245 -144.27646 -1.1631476 -144.27016 -20.101427 -39.026222
20560000000 -20.454807 -64.493454 -1.154613 -144.35202 -1.1612511 -144.34308 -20.086409 -39.087555
20570000000 -20.456554 -64.628372 -1.1538891 -144.42496 -1.1629012 -144.418 -20.088572 -39.102036
20580000000 -20.454721 -64.826523 -1.1552675 -144.49588 -1.1628065 -144.48903 -20.083845 -39.099663
20590000000 -20.469706 -64.874542 -1.1553911 -144.57208 -1.1616658 -144.55946 -20.088573 -39.094151
20600000000 -20.459154 -64.950569 -1.1547129 -144.63628 -1.162661 -144.63364 -20.09236 -39.106991
20610000000 -20.45915 -65.032242 -1.1557188 -144.70795 -1.162462 -144.70341 -20.093683 -39.117786
20620000000 -20.459208 -65.08873 -1.1552553 -144.7851 -1.1623639 -144.77603 -20.101715 -39.167816
20630000000 -20.463167 -65.166054 -1.1557992 -144.85054 -1.1638243 -144.84448 -20.108318 -39.239422
20640000000 -20.458841 -65.215363 -1.1564174 -144.93019 -1.1636937 -144.91656 -20.114759 -39.318916
20650000000 -20.464502 -65.273285 -1.1567444 -145.00098 -1.1640159 -144.99117 -20.118193 -39.411568
20660000000 -20.473097 -65.382309 -1.1567622 -145.06709 -1.1643144 -145.06563 -20.112755 -39.500912
20670000000 -20.485746 -65.485672 -1.1567585 -145.14137 -1.1639136 -145.1353 -20.096729 -39.613216
20680000000 -20.503597 -65.665794 -1.1563839 -145.20564 -1.1635752 -145.20734 -20.086229 -39.663879
20690000000 -20.514708 -65.752708 -1.1560711 -145.28368 -1.163112 -145.27768 -20.057211 -39.688126
20700000000 -20.527792 -66.013512 -1.156466 -145.3555 -1.1634064 -145.3372 -20.040602 -39.665913
20710000000 -20.548258 -66.215141 -1.1559421 -145.42603 -1.1631804 -145.41461 -20.016775 -39.503971
20720000000 -20.546778 -66.46534 -1.1563437 -145.494 -1.1628237 -145.48584 -20.002192 -39.37051
20730000000 -20.55126 -66.723839 -1.1565329 -145.56296 -1.1633208 -145.55138 -20.000669 -39.150753
20740000000 -20.547415 -66.969093 -1.1573161 -145.63812 -1.1631032 -145.63121 -20.004282 -38.924721
20750000000 -20.545204 -67.222412 -1.156065 -145.70868 -1.1634053 -145.70273 -20.022543 -38.779522
20760000000 -20.533735 -67.346748 -1.1567687 -145.77832 -1.1631708 -145.77298 -20.052616 -38.675613
20770000000 -20.51688 -67.483002 -1.1565491 -145.8512 -1.1641539 -145.84325 -20.092377 -38.598679
20780000000 -20.5147 -67.5709 -1.1572553 -145.91907 -1.1642642 -145.91238 -20.14266 -38.644157
20790000000 -20.502211 -67.594322 -1.1565666 -145.9852 -1.1631231 -145.9893 -20.18927 -38.761326
20800000000 -20.49605 -67.537437 -1.1566051 -146.05882 -1.1631949 -146.05441 -20.228235 -38.975178
20810000000 -20.500185 -67.439133 -1.156466 -146.12706 -1.1638057 -146.12831 -20.252619 -39.22855
20820000000 -20.515705 -67.341408 -1.1561755 -146.19739 -1.1631997 -146.20265 -20.2698 -39.550816
20830000000 -20.531681 -67.328728 -1.1550149 -146.27295 -1.16251 -146.27409 -20.276739 -39.847916
20840000000 -20.551495 -67.15786 -1.1556343 -146.34457 -1.1622909 -146.33963 -20.254465 -40.11095
20850000000 -20.578074 -67.079079 -1.1552002 -146.41747 -1.1627557 -146.41287 -20.239422 -40.273827
20860000000 -20.593716 -67.106834 -1.1557323 -146.48634 -1.1628366 -146.47861 -20.216284 -40.430122
20870000000 -20.608627 -67.10791 -1.1543999 -146.5607 -1.1630931 -146.56061 -20.196554 -40.529343
20880000000 -20.624231 -67.252792 -1.155563 -146.62663 -1.1633039 -146.62669 -20.186264 -40.526939
20890000000 -20.631134 -67.318695 -1.156795 -146.69858 -1.1634653 -146.69371 -20.166817 -40.363705
20900000000 -20.639111 -67.505539 -1.1572782 -146.77156 -1.1636016 -146.76967 -20.164009 -40.328754
20910000000 -20.630432 -67.575111 -1.1566167 -146.84937 -1.1643015 -146.84123 -20.165882 -40.255211
20920000000 -20.629787 -67.770134 -1.1572356 -146.91679 -1.1639506 -146.91286 -20.171276 -40.198956
20930000000 -20.623264 -67.87043 -1.1562113 -146.99167 -1.1634182 -146.98288 -20.178707 -40.239437
20940000000 -20.627756 -68.01725 -1.1575067 -147.06488 -1.1638439 -147.05287 -20.182066 -40.237122
20950000000 -20.627325 -68.05999 -1.1563356 -147.13234 -1.1646508 -147.12694 -20.193653 -40.39349
20960000000 -20.635075 -68.12162 -1.1573496 -147.20448 -1.1639657 -147.19217 -20.201298 -40.596153
20970000000 -20.640825 -68.228378 -1.1561123 -147.27344 -1.1637089 -147.2662 -20.201252 -40.642418
20980000000 -20.647799 -68.359016 -1.1565944 -147.34149 -1.164179 -147.33313 -20.191538 -40.824829
20990000000 -20.650455 -68.411621 -1.1578611 -147.41238 -1.1640595 -147.40767 -20.18244 -40.893593
21000000000 -20.652994 -68.478439 -1.1577442 -147.47981 -1.1634852 -147.4751 -20.175089 -40.889957
21010000000 -20.661079 -68.573006 -1.157313 -147.55241 -1.1638954 -147.54526 -20.171627 -41.031528
21020000000 -20.660854 -68.600922 -1.1575955 -147.62686 -1.1647252 -147.61983 -20.168859 -41.047741
21030000000 -20.662579 -68.679657 -1.1579754 -147.70096 -1.1646068 -147.68887 -20.170834 -40.947304
21040000000 -20.656921 -68.716072 -1.1582298 -147.77911 -1.1651927 -147.77036 -20.17659 -40.995003
21050000000 -20.659689 -68.782349 -1.1574519 -147.8559 -1.1655661 -147.84029 -20.183607 -41.029312
21060000000 -20.668999 -68.846184 -1.1586895 -147.92825 -1.1646758 -147.91644 -20.198235 -41.048309
21070000000 -20.671955 -68.901199 -1.1581751 -147.99817 -1.1645445 -147.99268 -20.207623 -41.128918
21080000000 -20.691158 -68.975861 -1.157462 -148.07263 -1.1642084 -148.07007 -20.213375 -41.145142
21090000000 -20.702185 -69.033752 -1.156991 -148.14716 -1.1647283 -148.1331 -20.209633 -41.238571
21100000000 -20.725967 -69.16851 -1.1566565 -148.21512 -1.1644094 -148.20445 -20.203098 -41.352943
21110000000 -20.739592 -69.265205 -1.1575255 -148.2814 -1.1644883 -148.28038 -20.202871 -41.330524
21120000000 -20.760136 -69.486809 -1.1576844 -148.3576 -1.1645956 -148.34508 -20.192347 -41.353844
21130000000 -20.779619 -69.633987 -1.1582832 -148.42816 -1.164971 -148.42062 -20.185574 -41.333546
21140000000 -20.794682 -69.894341 -1.1588355 -148.50078 -1.1653109 -148.49245 -20.180088 -41.301044
21150000000 -20.804159 -70.091461 -1.1593677 -148.5692 -1.165822 -148.56068 -20.190641 -41.259777
21160000000 -20.803144 -70.335144 -1.1595719 -148.64432 -1.1669009 -148.6351 -20.207699 -41.191849
21170000000 -20.800688 -70.649277 -1.1599667 -148.72105 -1.1665388 -148.70737 -20.228756 -41.262592
21180000000 -20.792553 -70.796051 -1.1600604 -148.7951 -1.1669189 -148.78105 -20.24505 -41.330402
21190000000 -20.775938 -71.03447 -1.1601473 -148.86229 -1.1665609 -148.85034 -20.273275 -41.383583
21200000000 -20.770224 -71.121574 -1.1600475 -148.93823 -1.1671021 -148.93138 -20.281536 -41.566345
21210000000 -20.761194 -71.221581 -1.1593869 -149.02161 -1.1666828 -148.99881 -20.286831 -41.73531
21220000000 -20.763044 -71.252274 -1.1581724 -149.09111 -1.1650431 -149.07686 -20.284666 -41.917049
21230000000 -20.749453 -71.189072 -1.1579237 -149.16081 -1.1647083 -149.15425 -20.264799 -42.081684
21240000000 -20.755293 -71.214066 -1.1569593 -149.22725 -1.1635056 -149.22531 -20.242588 -42.237366
21250000000 -20.770861 -71.174225 -1.1568873 -149.30247 -1.1636835 -149.29868 -20.225298 -42.264225
21260000000 -20.782608 -71.248734 -1.1568683 -149.37352 -1.1638643 -149.36659 -20.197414 -42.238293
21270000000 -20.794893 -71.319633 -1.1577148 -149.44278 -1.1641221 -149.4375 -20.17803 -42.117748
21280000000 -20.800411 -71.478378 -1.1575878 -149.51407 -1.1639929 -149.50731 -20.165337 -41.968792
21290000000 -20.80628 -71.565842 -1.158534 -149.58469 -1.164799 -149.57993 -20.171412 -41.855957
21300000000 -20.800173 -71.763847 -1.1590171 -149.66597 -1.1655878 -149.65132 -20.183784 -41.795132
21310000000 -20.800886 -71.996994 -1.1602366 -149.73482 -1.1670214 -149.72752 -20.207378 -41.741016
21320000000 -20.774958 -72.176323 -1.1607066 -149.80994 -1.1670234 -149.80211 -20.235901 -41.782558
21330000000 -20.754148 -72.348183 -1.1607512 -149.88631 -1.1666659 -149.87273 -20.260942 -41.978664
21340000000 -20.742008 -72.480118 -1.161342 -149.95679 -1.1692094 -149.95471 -20.280478 -42.190598
21350000000 -20.720516 -72.458099 -1.1614788 -150.03259 -1.1678587 -150.02193 -20.287487 -42.555824
21360000000 -20.707508 -72.43644 -1.1614777 -150.10684 -1.1674638 -150.0925 -20.29225 -42.907661
21370000000 -20.69702 -72.422112 -1.161956 -150.17299 -1.1681676 -150.16162 -20.284809 -43.281174
21380000000 -20.700943 -72.378716 -1.1612295 -150.2448 -1.1683539 -150.23474 -20.252865 -43.577396
21390000000 -20.701887 -72.345711 -1.1614655 -150.31282 -1.1685162 -150.30107 -20.226801 -43.75806
21400000000 -20.719496 -72.41777 -1.1618606 -150.38275 -1.1692064 -150.36674 -20.198547 -43.843639
21410000000 -20.730959 -72.560524 -1.1624367 -150.4473 -1.1694931 -150.43182 -20.170572 -43.889782
21420000000 -20.741844 -72.638092 -1.1634927 -150.51424 -1.1686175 -150.50343 -20.148323 -43.808926
21430000000 -20.764124 -72.856018 -1.1635901 -150.58284 -1.1698356 -150.57581 -20.137863 -43.682354
21440000000 -20.769415 -73.075539 -1.1642903 -150.65892 -1.1704646 -150.63951 -20.137997 -43.60545
21450000000 -20.786449 -73.297249 -1.1641624 -150.73438 -1.1703348 -150.71861 -20.144302 -43.465225
21460000000 -20.786423 -73.52533 -1.1646041 -150.81143 -1.1699641 -150.79044 -20.157587 -43.451591
21470000000 -20.779591 -73.801544 -1.1634862 -150.88185 -1.1708527 -150.86391 -20.167543 -43.419819
21480000000 -20.774389 -74.046989 -1.1629363 -150.9494 -1.170289 -150.94016 -20.182365 -43.512348
21490000000 -20.762714 -74.131035 -1.1635935 -151.0309 -1.16996 -151.01135 -20.190235 -43.625454
21500000000 -20.743017 -74.288643 -1.1620243 -151.10579 -1.1699485 -151.08896 -20.186392 -43.762833
21510000000 -20.720467 -74.443703 -1.162436 -151.16963 -1.1700555 -151.1615 -20.170847 -43.870705
21520000000 -20.725998 -74.431206 -1.1618659 -151.23943 -1.1694381 -151.23056 -20.160753 -43.975304
21530000000 -20.718054 -74.538239 -1.1632314 -151.30933 -1.1691148 -151.30037 -20.141457 -43.996559
21540000000 -20.710039 -74.662392 -1.1643418 -151.38174 -1.1705222 -151.37035 -20.125219 -43.980206
21550000000 -20.706623 -74.770332 -1.1642886 -151.4465 -1.170552 -151.44054 -20.132799 -43.880299
21560000000 -20.702579 -74.924332 -1.1644101 -151.51953 -1.1715931 -151.5141 -20.128506 -43.804157
21570000000 -20.710594 -75.043114 -1.1640433 -151.59357 -1.1721159 -151.58357 -20.153645 -43.679451
21580000000 -20.71833 -75.174591 -1.1655129 -151.6725 -1.1725967 -151.6573 -20.176149 -43.707481
21590000000 -20.728758 -75.332054 -1.1657628 -151.743 -1.1728055 -151.73407 -20.217285 -43.825676
21600000000 -20.721979 -75.433426 -1.1654747 -151.81737 -1.1732441 -151.81 -20.260311 -44.003002
21610000000 -20.712646 -75.516548 -1.1659338 -151.88689 -1.1724862 -151.88432 -20.305574 -44.243244
21620000000 -20.727341 -75.585205 -1.1655655 -151.96396 -1.1732399 -151.95891 -20.334427 -44.595722
21630000000 -20.713224 -75.627281 -1.1660351 -152.03703 -1.1722888 -152.02812 -20.349947 -45.056065
21640000000 -20.716127 -75.591843 -1.1648945 -152.10452 -1.1725096 -152.10208 -20.357258 -45.472553
21650000000 -20.717915 -75.520477 -1.1640964 -152.17462 -1.1711317 -152.17834 -20.328627 -45.799774
21660000000 -20.714907 -75.57679 -1.164133 -152.24942 -1.1706941 -152.25266 -20.299446 -46.116138
21670000000 -20.720613 -75.573082 -1.1641313 -152.32886 -1.1707344 -152.32451 -20.249971 -46.283188
21680000000 -20.722647 -75.732864 -1.1648799 -152.40016 -1.1704853 -152.39149 -20.200836 -46.347744
21690000000 -20.717642 -75.883675 -1.1640599 -152.47473 -1.1719823 -152.4693 -20.148609 -46.342152
21700000000 -20.708324 -76.153061 -1.164817 -152.55344 -1.171289 -152.54242 -20.107773 -46.298908
21710000000 -20.693651 -76.391899 -1.1656078 -152.6236 -1.1730039 -152.62311 -20.071424 -46.208138
21720000000 -20.666149 -76.707664 -1.1663729 -152.70346 -1.1722711 -152.69736 -20.034336 -46.107521
21730000000 -20.63891 -76.973961 -1.1656342 -152.77534 -1.1736548 -152.77557 -20.022797 -46.100208
21740000000 -20.600765 -77.175514 -1.1660181 -152.84985 -1.1731918 -152.84975 -20.005207 -46.096424
21750000000 -20.552557 -77.411766 -1.1666862 -152.92989 -1.1725811 -152.92918 -19.999834 -46.197975
21760000000 -20.503632 -77.551384 -1.1659622 -153.00218 -1.173003 -152.99817 -19.984232 -46.32243
21770000000 -20.448235 -77.590118 -1.1660503 -153.07982 -1.1732583 -153.073 -19.965549 -46.522259
21780000000 -20.401176 -77.661613 -1.165629 -153.15077 -1.1734608 -153.13853 -19.937468 -46.691471
21790000000 -20.368422 -77.669868 -1.1671972 -153.21924 -1.1736802 -153.21701 -19.911137 -46.90955
21800000000 -20.334726 -77.698822 -1.1673137 -153.29144 -1.1735272 -153.28275 -19.876034 -46.947235
21810000000 -20.307264 -77.660927 -1.1673886 -153.36174 -1.1744757 -153.35037 -19.844061 -47.044495
21820000000 -20.303339 -77.688385 -1.168525 -153.42683 -1.1747464 -153.41916 -19.810854 -47.083786
21830000000 -20.303448 -77.691071 -1.1689824 -153.49704 -1.1746833 -153.4892 -19.781364 -47.074852
21840000000 -20.300497 -77.772896 -1.1692528 -153.56795 -1.1749941 -153.56476 -19.766111 -46.958576
21850000000 -20.303864 -77.846344 -1.1693633 -153.63525 -1.1751702 -153.63197 -19.763412 -46.809948
21860000000 -20.305798 -77.875656 -1.168501 -153.70572 -1.1744306 -153.70366 -19.772043 -46.673485
21870000000 -20.30855 -77.983047 -1.1685185 -153.77945 -1.1745028 -153.77002 -19.785177 -46.589748
21880000000 -20.310717 -78.070084 -1.1675081 -153.84747 -1.1746202 -153.84421 -19.813963 -46.546001
21890000000 -20.315449 -78.146194 -1.1672883 -153.91837 -1.1731189 -153.91222 -19.838278 -46.580509
21900000000 -20.31772 -78.22998 -1.1671654 -153.98822 -1.173816 -153.97633 -19.861298 -46.656849
21910000000 -20.310801 -78.348351 -1.1668466 -154.05603 -1.1737539 -154.05064 -19.88105 -46.795158
21920000000 -20.305176 -78.471169 -1.1670008 -154.12685 -1.173878 -154.1196 -19.892412 -47.024284
21930000000 -20.289896 -78.623772 -1.1674641 -154.20198 -1.1731335 -154.18744 -19.895775 -47.223312
21940000000 -20.273655 -78.739601 -1.169041 -154.269 -1.174701 -154.26555 -19.886776 -47.433239
21950000000 -20.267262 -78.860672 -1.1696862 -154.34079 -1.174968 -154.3367 -19.866703 -47.621502
21960000000 -20.251072 -78.982208 -1.1700369 -154.41811 -1.1759319 -154.41226 -19.8512 -47.828949
21970000000 -20.24135 -79.155159 -1.1714263 -154.49538 -1.176236 -154.48671 -19.827255 -48.023098
21980000000 -20.218773 -79.343887 -1.1718718 -154.56793 -1.1774217 -154.5668 -19.803261 -48.185886
21990000000 -20.198973 -79.540222 -1.1718165 -154.64639 -1.1781977 -154.64107 -19.788256 -48.287445
22000000000 -20.179789 -79.68644 -1.1720569 -154.71977 -1.1778661 -154.71295 -19.777012 -48.446304
22010000000 -20.147776 -79.821373 -1.1723566 -154.79457 -1.178154 -154.79381 -19.763142 -48.644791
22020000000 -20.122473 -79.926994 -1.1715782 -154.86629 -1.1778039 -154.86363 -19.760019 -48.846523
22030000000 -20.092474 -80.050095 -1.1716859 -154.94162 -1.1775575 -154.93004 -19.742609 -49.030666
22040000000 -20.057629 -80.0802 -1.1713378 -155.002 -1.1778334 -155.00258 -19.725988 -49.196102
22050000000 -20.025034 -80.215553 -1.1712039 -155.07419 -1.1786935 -155.07494 -19.699169 -49.348892
22060000000 -19.993336 -80.245949 -1.1713789 -155.15219 -1.178391 -155.14816 -19.662447 -49.50354
22070000000 -19.968121 -80.263306 -1.171072 -155.22131 -1.1791278 -155.21835 -19.615437 -49.61282
22080000000 -19.93541 -80.236435 -1.1723003 -155.29172 -1.1788484 -155.29128 -19.578566 -49.627403
22090000000 -19.910412 -80.19104 -1.1723675 -155.36679 -1.178082 -155.36108 -19.525471 -49.637569
22100000000 -19.889244 -80.208801 -1.1728693 -155.44682 -1.1785288 -155.43335 -19.48461 -49.63427
22110000000 -19.871304 -80.177917 -1.1722864 -155.51714 -1.1787455 -155.51035 -19.446156 -49.487083
22120000000 -19.848909 -80.203117 -1.1718951 -155.59172 -1.1786959 -155.58856 -19.413647 -49.365459
22130000000 -19.840382 -80.217842 -1.1710974 -155.65808 -1.1778154 -155.6546 -19.408499 -49.240429
22140000000 -19.815134 -80.313904 -1.170711 -155.72932 -1.1777645 -155.72449 -19.397848 -49.096027
22150000000 -19.788742 -80.311653 -1.1701463 -155.81265 -1.1773704 -155.80125 -19.393661 -49.147545
22160000000 -19.768188 -80.398735 -1.1712971 -155.88133 -1.1771671 -155.87137 -19.401304 -49.172844
22170000000 -19.738331 -80.361687 -1.170768 -155.94638 -1.1765842 -155.94077 -19.409565 -49.261887
22180000000 -19.710548 -80.426834 -1.1718742 -156.01476 -1.1778994 -156.01167 -19.416691 -49.469036
22190000000 -19.697905 -80.444115 -1.1724529 -156.08046 -1.1786137 -156.07201 -19.433088 -49.698017
22200000000 -19.675625 -80.394821 -1.1727577 -156.15378 -1.1787302 -156.14497 -19.429594 -49.948997
22210000000 -19.667385 -80.382019 -1.1735669 -156.22058 -1.1797053 -156.2094 -19.415581 -50.109486
22220000000 -19.667765 -80.35849 -1.1743705 -156.2907 -1.1798217 -156.28427 -19.408226 -50.310402
22230000000 -19.658968 -80.316864 -1.1747617 -156.368 -1.1800952 -156.35173 -19.388092 -50.507614
22240000000 -19.6635 -80.344017 -1.1742525 -156.4364 -1.1800982 -156.43294 -19.365105 -50.621147
22250000000 -19.662657 -80.310791 -1.1750338 -156.51126 -1.1803323 -156.50667 -19.352493 -50.734089
22260000000 -19.668989 -80.354332 -1.1741399 -156.59052 -1.179983 -156.58459 -19.337608 -50.805122
22270000000 -19.677757 -80.432045 -1.1740286 -156.65552 -1.1798261 -156.65259 -19.328552 -50.738247
22280000000 -19.6751 -80.46257 -1.1731695 -156.72682 -1.17994 -156.71887 -19.327173 -50.748508
22290000000 -19.664949 -80.550011 -1.1736053 -156.79576 -1.1789757 -156.79332 -19.316339 -50.852352
22300000000 -19.649364 -80.622299 -1.1734869 -156.86537 -1.1794651 -156.86212 -19.321623 -50.938965
22310000000 -19.635126 -80.738113 -1.1738294 -156.94099 -1.1792793 -156.93349 -19.315958 -51.088299
22320000000 -19.61454 -80.83123 -1.173862 -157.01099 -1.1803788 -156.99812 -19.306366 -51.336788
22330000000 -19.583723 -80.914742 -1.1749136 -157.08237 -1.181253 -157.07065 -19.291134 -51.564194
22340000000 -19.554178 -80.963585 -1.1757491 -157.15791 -1.1821222 -157.1498 -19.258257 -51.777695
22350000000 -19.528664 -81.038239 -1.1761373 -157.22482 -1.1830443 -157.22238 -19.218637 -52.021957
22360000000 -19.504646 -81.074265 -1.1776128 -157.31096 -1.1833761 -157.29556 -19.17207 -52.164459
22370000000 -19.475218 -81.145676 -1.1773704 -157.38176 -1.1837126 -157.36964 -19.126589 -52.288651
22380000000 -19.450537 -81.152519 -1.1779017 -157.45541 -1.1841049 -157.44055 -19.078146 -52.383518
22390000000 -19.443928 -81.192024 -1.1775523 -157.5271 -1.1833043 -157.52209 -19.034237 -52.283237
22400000000 -19.433899 -81.23597 -1.1765069 -157.59805 -1.1824682 -157.59476 -18.991922 -52.191357
22410000000 -19.424099 -81.328094 -1.1760212 -157.67126 -1.1826419 -157.65964 -18.964367 -52.034527
22420000000 -19.423983 -81.449333 -1.1758145 -157.73459 -1.1826048 -157.73346 -18.94223 -51.915504
22430000000 -19.419485 -81.578476 -1.1748272 -157.79845 -1.1811701 -157.80571 -18.937925 -51.773949
22440000000 -19.410439 -81.705399 -1.175181 -157.8718 -1.1816882 -157.85815 -18.942533 -51.625206
22450000000 -19.411905 -81.810013 -1.1748706 -157.93823 -1.1811874 -157.92847 -18.948414 -51.494045
22460000000 -19.406467 -81.926331 -1.175029 -158.00127 -1.1814551 -157.99474 -18.955088 -51.481178
22470000000 -19.393492 -82.015694 -1.1751376 -158.06973 -1.1811951 -158.06992 -18.963934 -51.462132
22480000000 -19.397579 -82.030289 -1.1753771 -158.13416 -1.1815187 -158.1353 -18.978638 -51.572899
22490000000 -19.386391 -82.045319 -1.1760002 -158.20531 -1.1812944 -158.21072 -18.98152 -51.580509
22500000000 -19.385479 -82.061981 -1.1750243 -158.28445 -1.1810915 -158.28195 -18.982159 -51.641144
22510000000 -19.37619 -82.069344 -1.1743363 -158.35347 -1.1809092 -158.35667 -18.975933 -51.657932
22520000000 -19.362505 -82.085213 -1.1746708 -158.4351 -1.1813084 -158.43341 -18.957935 -51.718369
22530000000 -19.354048 -82.087547 -1.1751441 -158.51337 -1.1810412 -158.51306 -18.932953 -51.767265
22540000000 -19.348032 -82.136902 -1.1739221 -158.5887 -1.181024 -158.58064 -18.915609 -51.798672
22550000000 -19.335852 -82.176422 -1.1745694 -158.66031 -1.179924 -158.65355 -18.89122 -51.826748
22560000000 -19.313065 -82.294228 -1.1747633 -158.73056 -1.1804886 -158.72806 -18.874878 -51.83519
22570000000 -19.307806 -82.393097 -1.1743478 -158.80269 -1.1809731 -158.799 -18.857916 -51.896023
22580000000 -19.281086 -82.514618 -1.1741185 -158.87051 -1.180693 -158.86542 -18.849119 -51.92881
22590000000 -19.259016 -82.670258 -1.175315 -158.94199 -1.1808418 -158.93256 -18.845648 -51.990494
22600000000 -19.237356 -82.757118 -1.1757599 -159.00549 -1.1819417 -159.00342 -18.846909 -52.064255
22610000000 -19.230278 -82.814156 -1.1761994 -159.07602 -1.1830229 -159.07132 -18.845379 -52.147831
22620000000 -19.204224 -82.840698 -1.1765897 -159.14854 -1.18291 -159.14342 -18.855373 -52.272774
22630000000 -19.18219 -82.826889 -1.1764896 -159.22374 -1.1837293 -159.21529 -18.852228 -52.483231
22640000000 -19.176399 -82.7845 -1.1776431 -159.29832 -1.1837616 -159.28868 -18.849092 -52.65382
22650000000 -19.167931 -82.81279 -1.1774002 -159.36679 -1.1841512 -159.36021 -18.844147 -52.802708
22660000000 -19.15839 -82.774429 -1.1782643 -159.44035 -1.1841807 -159.44006 -18.834707 -53.048737
22670000000 -19.14819 -82.802689 -1.1778663 -159.51976 -1.1849656 -159.5088 -18.809795 -53.188068
22680000000 -19.132446 -82.874672 -1.1785563 -159.591 -1.1848764 -159.58347 -18.780142 -53.327003
22690000000 -19.124626 -82.933289 -1.1776413 -159.66255 -1.184886 -159.65544 -18.741894 -53.455208
22700000000 -19.106354 -83.063759 -1.1780568 -159.735 -1.1853797 -159.72752 -18.693502 -53.489613
22710000000 -19.083382 -83.139534 -1.17805 -159.80135 -1.1853335 -159.79765 -18.653004 -53.522011
22720000000 -19.058382 -83.255676 -1.1779903 -159.87663 -1.1849278 -159.86986 -18.61017 -53.528721
22730000000 -19.029848 -83.3601 -1.1778834 -159.94887 -1.1860342 -159.94806 -18.56632 -53.460648
22740000000 -19.005253 -83.410896 -1.1783377 -160.0204 -1.185492 -160.02036 -18.531664 -53.39777
22750000000 -18.97938 -83.441002 -1.1788785 -160.09917 -1.1860964 -160.08882 -18.508207 -53.217583
22760000000 -18.960274 -83.42511 -1.1783065 -160.16689 -1.1859481 -160.16553 -18.489014 -53.075764
22770000000 -18.942343 -83.397263 -1.1785074 -160.23967 -1.1859195 -160.237 -18.484118 -53.008549
22780000000 -18.924278 -83.378441 -1.1781904 -160.31049 -1.1856427 -160.30632 -18.483953 -52.930779
22790000000 -18.915552 -83.370361 -1.1779666 -160.38548 -1.1851788 -160.3745 -18.492783 -52.851433
22800000000 -18.910519 -83.434479 -1.1783041 -160.4541 -1.1860702 -160.44777 -18.49918 -52.850452
22810000000 -18.913389 -83.52533 -1.1783563 -160.52341 -1.1851999 -160.51886 -18.505724 -52.826439
22820000000 -18.91889 -83.569572 -1.1779714 -160.58446 -1.1857539 -160.58551 -18.508236 -52.929531
22830000000 -18.932148 -83.64856 -1.1784718 -160.65216 -1.1858709 -160.65102 -18.509651 -53.055717
22840000000 -18.935137 -83.776154 -1.1797558 -160.72192 -1.1853753 -160.71198 -18.503689 -53.149345
22850000000 -18.932964 -83.912575 -1.1783458 -160.78383 -1.1864413 -160.78143 -18.487793 -53.202667
22860000000 -18.921396 -84.004868 -1.1789169 -160.855 -1.1863825 -160.84871 -18.470211 -53.204632
22870000000 -18.911882 -84.136772 -1.1781753 -160.92793 -1.1870867 -160.92332 -18.451591 -53.221046
22880000000 -18.900755 -84.14032 -1.1789281 -160.99965 -1.1866852 -160.98575 -18.431555 -53.114716
22890000000 -18.899023 -84.160645 -1.1790701 -161.06256 -1.1854573 -161.06386 -18.430332 -52.998333
22900000000 -18.893354 -84.08181 -1.1775184 -161.13782 -1.1852577 -161.13899 -18.424374 -52.828186
22910000000 -18.883686 -84.068146 -1.1771902 -161.21086 -1.1851668 -161.21046 -18.435341 -52.68684
22920000000 -18.889988 -84.006058 -1.1757151 -161.28424 -1.1848458 -161.28311 -18.446051 -52.556549
22930000000 -18.888336 -83.978363 -1.1755315 -161.35744 -1.1836752 -161.35043 -18.467695 -52.437992
22940000000 -18.901739 -83.999207 -1.1757419 -161.42714 -1.1824902 -161.42235 -18.483355 -52.401775
22950000000 -18.905115 -84.043686 -1.1749527 -161.494 -1.1822357 -161.48816 -18.516289 -52.498646
22960000000 -18.918934 -84.069321 -1.1762381 -161.55284 -1.1826292 -161.55536 -18.54093 -52.613747
22970000000 -18.921246 -84.196548 -1.1755702 -161.62659 -1.182251 -161.61853 -18.54652 -52.809742
22980000000 -18.908852 -84.416885 -1.1758237 -161.70131 -1.1834372 -161.68605 -18.541515 -53.073444
22990000000 -18.895121 -84.426941 -1.1764359 -161.76201 -1.182808 -161.7579 -18.535833 -53.312401
23000000000 -18.873117 -84.569786 -1.1773484 -161.83932 -1.1850699 -161.8311 -18.517899 -53.576851
23010000000 -18.843264 -84.642395 -1.1787815 -161.90497 -1.1853522 -161.90771 -18.504276 -53.839737
23020000000 -18.817131 -84.640602 -1.1797894 -161.98184 -1.1855104 -161.97723 -18.487061 -53.965645
23030000000 -18.785799 -84.626495 -1.1797541 -162.06436 -1.1864991 -162.04915 -18.465622 -54.060532
23040000000 -18.769558 -84.563316 -1.1799738 -162.13652 -1.1855484 -162.13094 -18.446545 -54.122326
23050000000 -18.761053 -84.540398 -1.1797976 -162.20998 -1.1864859 -162.20518 -18.429058 -54.190094
23060000000 -18.7416 -84.468422 -1.1798567 -162.28571 -1.18581 -162.27986 -18.415049 -54.207012
23070000000 -18.744011 -84.374191 -1.1794465 -162.35878 -1.1857206 -162.35245 -18.410519 -54.213783
23080000000 -18.751345 -84.339584 -1.1782891 -162.43021 -1.1849084 -162.42085 -18.401407 -54.207867
23090000000 -18.76169 -84.332169 -1.1782725 -162.50212 -1.1849135 -162.49443 -18.396778 -54.232452
23100000000 -18.775328 -84.327507 -1.1778426 -162.57324 -1.18499 -162.56018 -18.39867 -54.286957
23110000000 -18.788397 -84.434357 -1.1777985 -162.64177 -1.1853043 -162.62752 -18.379143 -54.338112
23120000000 -18.799303 -84.465759 -1.1775622 -162.71156 -1.1850049 -162.70723 -18.36071 -54.362915
23130000000 -18.805796 -84.616623 -1.1781369 -162.78149 -1.1855798 -162.77145 -18.345078 -54.462208
23140000000 -18.798397 -84.812073 -1.1789353 -162.8517 -1.1860529 -162.84525 -18.326849 -54.410286
23150000000 -18.790497 -84.996048 -1.1803846 -162.92264 -1.1857688 -162.92209 -18.306917 -54.359909
23160000000 -18.78618 -85.101677 -1.179208 -162.99382 -1.1863914 -162.98778 -18.298611 -54.266644
23170000000 -18.775116 -85.305321 -1.1799345 -163.06844 -1.1861801 -163.06595 -18.285595 -54.217541
23180000000 -18.761517 -85.448868 -1.1799722 -163.14189 -1.1863042 -163.14163 -18.265741 -54.090015
23190000000 -18.753458 -85.669701 -1.1802585 -163.21384 -1.1872187 -163.21011 -18.261726 -53.940899
23200000000 -18.745268 -85.725342 -1.1791221 -163.28574 -1.1869496 -163.28505 -18.268438 -53.879917
23210000000 -18.737526 -85.862778 -1.1799246 -163.35893 -1.1873256 -163.35542 -18.28331 -53.759708
23220000000 -18.74214 -85.931351 -1.1798126 -163.43225 -1.1865751 -163.41618 -18.289452 -53.59478
23230000000 -18.732611 -85.998894 -1.1798462 -163.48843 -1.1861355 -163.48853 -18.308363 -53.603043
23240000000 -18.73819 -86.005463 -1.1799233 -163.56358 -1.1864073 -163.55014 -18.337456 -53.565926
23250000000 -18.731865 -85.992729 -1.179548 -163.62921 -1.1872647 -163.62433 -18.351868 -53.601513
23260000000 -18.736568 -85.964645 -1.1798882 -163.70432 -1.1871715 -163.6969 -18.37846 -53.656261
23270000000 -18.746086 -85.905869 -1.1795102 -163.76994 -1.186703 -163.76347 -18.394342 -53.716045
23280000000 -18.754648 -85.803909 -1.1790701 -163.84113 -1.1867754 -163.8286 -18.417589 -53.810661
23290000000 -18.771027 -85.688675 -1.1792678 -163.90981 -1.1866325 -163.90576 -18.430387 -53.941498
23300000000 -18.783106 -85.634109 -1.1791662 -163.97897 -1.1849754 -163.97388 -18.439919 -54.090401
23310000000 -18.793381 -85.633514 -1.1792362 -164.0507 -1.1850547 -164.04695 -18.444595 -54.239468
23320000000 -18.811871 -85.70079 -1.1783177 -164.13121 -1.1847153 -164.11243 -18.429741 -54.290421
23330000000 -18.82423 -85.850533 -1.179103 -164.19844 -1.1845945 -164.18785 -18.420362 -54.415497
23340000000 -18.836729 -86.029037 -1.1782782 -164.25922 -1.1849278 -164.26137 -18.393744 -54.449177
23350000000 -18.841837 -86.26059 -1.1786592 -164.33803 -1.1849618 -164.32607 -18.363274 -54.473656
23360000000 -18.832598 -86.520096 -1.1777234 -164.41217 -1.1848183 -164.39197 -18.327215 -54.427132
23370000000 -18.816092 -86.837959 -1.1783295 -164.47554 -1.1854992 -164.46857 -18.293983 -54.327583
23380000000 -18.784559 -87.065475 -1.1782212 -164.54845 -1.1856723 -164.5374 -18.275095 -54.274773
23390000000 -18.746771 -87.316444 -1.1794257 -164.61456 -1.1869907 -164.61322 -18.256405 -54.134838
23400000000 -18.70487 -87.421791 -1.1790113 -164.69637 -1.1870656 -164.67747 -18.246511 -54.015606
23410000000 -18.665207 -87.501968 -1.1805099 -164.76439 -1.18787 -164.76286 -18.252382 -53.933678
23420000000 -18.619967 -87.497528 -1.1801068 -164.84116 -1.187066 -164.83029 -18.259508 -53.905781
23430000000 -18.586521 -87.398483 -1.1797541 -164.91643 -1.1866703 -164.9075 -18.279453 -53.901516
23440000000 -18.55891 -87.264816 -1.1799494 -164.99127 -1.1875389 -164.976 -18.308838 -54.001011
23450000000 -18.553333 -87.100883 -1.180491 -165.05791 -1.1864831 -165.04607 -18.330996 -54.163368
23460000000 -18.552507 -86.936508 -1.1796998 -165.13455 -1.1855747 -165.12717 -18.352152 -54.321087
23470000000 -18.566185 -86.810989 -1.1798085 -165.20169 -1.1863152 -165.20145 -18.352814 -54.623146
23480000000 -18.576916 -86.697792 -1.1801037 -165.27078 -1.1859219 -165.27545 -18.342833 -54.85387
23490000000 -18.590385 -86.590691 -1.1797382 -165.34337 -1.18576 -165.3322 -18.336773 -55.037479
23500000000 -18.598576 -86.52681 -1.1799104 -165.41574 -1.1866941 -165.40742 -18.317688 -55.127968
23510000000 -18.609066 -86.509064 -1.1800201 -165.49597 -1.1857516 -165.47243 -18.295431 -55.131947
23520000000 -18.618294 -86.518135 -1.1799413 -165.56056 -1.18613 -165.55617 -18.274643 -55.056156
23530000000 -18.622284 -86.540436 -1.1803 -165.63403 -1.1857009 -165.62685 -18.252663 -54.928127
23540000000 -18.63336 -86.536026 -1.1798944 -165.70546 -1.1860995 -165.69366 -18.252956 -54.777042
23550000000 -18.633772 -86.641159 -1.1790705 -165.78242 -1.1860043 -165.76649 -18.266495 -54.601238
23560000000 -18.648514 -86.604919 -1.1793638 -165.85051 -1.1854556 -165.84102 -18.2834 -54.474388
23570000000 -18.654753 -86.574699 -1.1784195 -165.9201 -1.1850418 -165.90854 -18.324345 -54.351337
23580000000 -18.670771 -86.616264 -1.1779133 -165.98915 -1.1840506 -165.97893 -18.35173 -54.398041
23590000000 -18.681101 -86.647675 -1.1776139 -166.05682 -1.1841433 -166.0513 -18.385656 -54.481831
23600000000 -18.700609 -86.727348 -1.1758159 -166.1283 -1.1835977 -166.12062 -18.424269 -54.64444
23610000000 -18.710062 -86.779282 -1.1761111 -166.19955 -1.1828686 -166.18698 -18.446363 -54.818428
23620000000 -18.729937 -86.889992 -1.1766495 -166.26521 -1.1821384 -166.25563 -18.464025 -55.042332
23630000000 -18.738111 -86.966911 -1.1756171 -166.32996 -1.1826316 -166.3239 -18.455864 -55.232403
23640000000 -18.753139 -87.041794 -1.1761417 -166.40425 -1.1823424 -166.38985 -18.446918 -55.419792
23650000000 -18.774174 -87.161469 -1.176234 -166.46852 -1.1819522 -166.46786 -18.438208 -55.513653
23660000000 -18.775053 -87.248291 -1.1756938 -166.54129 -1.1821612 -166.53619 -18.425375 -55.547413
23670000000 -18.781946 -87.303619 -1.1762228 -166.61888 -1.183391 -166.60419 -18.421764 -55.459564
23680000000 -18.794178 -87.428207 -1.1766535 -166.68707 -1.182994 -166.68657 -18.419827 -55.327332
23690000000 -18.809763 -87.489258 -1.1763555 -166.7635 -1.1833138 -166.7509 -18.424858 -55.212799
23700000000 -18.81695 -87.598198 -1.1761423 -166.83321 -1.1831694 -166.82977 -18.426649 -55.092354
23710000000 -18.827303 -87.668449 -1.1769328 -166.91159 -1.183171 -166.9001 -18.438845 -55.036655
23720000000 -18.825098 -87.794189 -1.1759751 -166.9771 -1.1829715 -166.97076 -18.45866 -55.033745
23730000000 -18.827314 -87.892792 -1.1752136 -167.05251 -1.1823628 -167.03716 -18.47401 -55.046513
23740000000 -18.819855 -88.028076 -1.1746999 -167.12209 -1.1822062 -167.11386 -18.483101 -55.138798
23750000000 -18.821323 -88.099228 -1.1754745 -167.18907 -1.1811585 -167.17619 -18.482229 -55.266476
23760000000 -18.807627 -88.160469 -1.1759486 -167.25957 -1.1817443 -167.2433 -18.479031 -55.397732
23770000000 -18.787628 -88.26667 -1.1757908 -167.33128 -1.1820213 -167.32095 -18.465155 -55.541573
23780000000 -18.762775 -88.281296 -1.1760107 -167.4075 -1.1820701 -167.39029 -18.44759 -55.62326
23790000000 -18.741308 -88.290565 -1.1762954 -167.47638 -1.183561 -167.45882 -18.440228 -55.679001
23800000000 -18.722738 -88.288231 -1.1767937 -167.55023 -1.1844497 -167.53448 -18.418362 -55.667122
23810000000 -18.716206 -88.234123 -1.1765432 -167.62561 -1.1841273 -167.60606 -18.408371 -55.64315
23820000000 -18.711056 -88.20507 -1.1777157 -167.70073 -1.1839689 -167.67906 -18.401852 -55.640804
23830000000 -18.709517 -88.154533 -1.1778325 -167.7728 -1.1838547 -167.76201 -18.39805 -55.632565
23840000000 -18.725315 -88.115295 -1.1768782 -167.84439 -1.1839873 -167.83345 -18.411919 -55.626434
23850000000 -18.736109 -88.143044 -1.1769359 -167.9258 -1.1827849 -167.9057 -18.424419 -55.652523
23860000000 -18.754229 -88.175369 -1.1766922 -167.99883 -1.1831986 -167.98317 -18.433289 -55.739639
23870000000 -18.772501 -88.196808 -1.1754494 -168.06967 -1.1825511 -168.05351 -18.443815 -55.737209
23880000000 -18.787354 -88.324966 -1.1752621 -168.13828 -1.1825286 -168.12511 -18.453133 -55.753658
23890000000 -18.804695 -88.446526 -1.1757005 -168.21588 -1.1822912 -168.19539 -18.463705 -55.832378
23900000000 -18.814905 -88.520271 -1.1749177 -168.27998 -1.182875 -168.25792 -18.476137 -55.80143
23910000000 -18.828217 -88.571007 -1.1750219 -168.3477 -1.182392 -168.33466 -18.481924 -55.838913
23920000000 -18.834749 -88.654068 -1.1761926 -168.42163 -1.1813108 -168.40916 -18.478657 -55.806019
23930000000 -18.839399 -88.721825 -1.1752431 -168.48602 -1.1823624 -168.47952 -18.486404 -55.754112
23940000000 -18.852543 -88.755501 -1.1761438 -168.56244 -1.1820416 -168.55045 -18.497574 -55.763439
23950000000 -18.855034 -88.832573 -1.1743156 -168.6333 -1.1813077 -168.62749 -18.513882 -55.751823
23960000000 -18.861128 -88.961571 -1.1743454 -168.70999 -1.1819394 -168.69991 -18.535353 -55.74939
23970000000 -18.875862 -89.041588 -1.1745917 -168.78365 -1.1803356 -168.77031 -18.5564 -55.878094
23980000000 -18.881763 -89.169373 -1.1744299 -168.85629 -1.1816992 -168.83943 -18.569559 -55.975224
23990000000 -18.879141 -89.357254 -1.1730524 -168.92207 -1.1801913 -168.9146 -18.581081 -56.16991
24000000000 -18.874861 -89.548492 -1.1737006 -168.9993 -1.1804543 -168.98622 -18.572807 -56.36549
24010000000 -18.852182 -89.80294 -1.1742718 -169.06532 -1.1807253 -169.05254 -18.557255 -56.648045
24020000000 -18.821199 -89.955849 -1.1735035 -169.13165 -1.1809323 -169.12146 -18.540091 -56.860336
24030000000 -18.785427 -90.028412 -1.1741558 -169.19817 -1.180494 -169.19058 -18.514503 -57.022198
24040000000 -18.753519 -90.088615 -1.1745782 -169.26552 -1.1812067 -169.26718 -18.481218 -57.063343
24050000000 -18.717278 -90.084053 -1.1762116 -169.34613 -1.1812689 -169.33432 -18.451639 -57.011223
24060000000 -18.701651 -90.038933 -1.1763942 -169.41893 -1.1833159 -169.40817 -18.433477 -56.924637
24070000000 -18.688061 -89.877434 -1.1764464 -169.49307 -1.1835086 -169.48386 -18.420593 -56.769939
24080000000 -18.694506 -89.691696 -1.1773001 -169.56825 -1.1836174 -169.5616 -18.429491 -56.595734
24090000000 -18.712437 -89.58831 -1.1763253 -169.64424 -1.1838081 -169.63867 -18.45043 -56.372246
24100000000 -18.749075 -89.412857 -1.1767761 -169.72847 -1.1840672 -169.71664 -18.483784 -56.191597
24110000000 -18.796782 -89.216019 -1.1760755 -169.80711 -1.1837146 -169.79395 -18.541815 -56.04665
24120000000 -18.844765 -89.19249 -1.1753751 -169.87421 -1.1820573 -169.87444 -18.574408 -56.056889
24130000000 -18.894333 -89.267891 -1.1738533 -169.95503 -1.1814443 -169.94038 -18.618391 -56.09697
24140000000 -18.938581 -89.380455 -1.1742816 -170.02261 -1.1815767 -170.01997 -18.655901 -56.280361
24150000000 -18.974281 -89.555672 -1.172259 -170.09656 -1.180583 -170.08984 -18.681023 -56.439259
24160000000 -18.988768 -89.790001 -1.1732576 -170.16914 -1.1801413 -170.15707 -18.690441 -56.696388
24170000000 -18.993105 -90.037895 -1.1725543 -170.23895 -1.1795082 -170.22903 -18.695175 -56.825588
24180000000 -18.992138 -90.238495 -1.1727055 -170.30396 -1.1795973 -170.29863 -18.680496 -57.014503
24190000000 -18.980381 -90.424866 -1.1729053 -170.37254 -1.1806082 -170.35942 -18.668062 -57.121326
24200000000 -18.955233 -90.551414 -1.174032 -170.44431 -1.1806366 -170.42577 -18.644178 -57.084759
24210000000 -18.939726 -90.682877 -1.1747576 -170.51497 -1.1815649 -170.50624 -18.630777 -57.024773
24220000000 -18.923475 -90.70256 -1.174764 -170.58601 -1.1823156 -170.57483 -18.63678 -56.928318
24230000000 -18.914722 -90.669556 -1.1756296 -170.66255 -1.1823955 -170.65991 -18.633095 -56.817669
24240000000 -18.909456 -90.655869 -1.175222 -170.74033 -1.1824766 -170.72508 -18.649305 -56.725395
24250000000 -18.906063 -90.649773 -1.1751009 -170.81255 -1.1824654 -170.79689 -18.682983 -56.709339
24260000000 -18.914173 -90.658768 -1.1749015 -170.88185 -1.1818211 -170.87338 -18.724445 -56.763859
24270000000 -18.920599 -90.5896 -1.173938 -170.95419 -1.1802467 -170.94287 -18.759146 -56.894798
24280000000 -18.929888 -90.614731 -1.1734269 -171.01962 -1.1792094 -171.01108 -18.797007 -57.186897
24290000000 -18.934248 -90.670044 -1.171653 -171.08807 -1.1797147 -171.07664 -18.822027 -57.518158
24300000000 -18.932293 -90.70343 -1.1729327 -171.15723 -1.179314 -171.14342 -18.832544 -57.845295
24310000000 -18.926661 -90.697952 -1.1716856 -171.22658 -1.1793133 -171.20587 -18.826111 -58.15379
24320000000 -18.912922 -90.71965 -1.1726167 -171.2888 -1.1792766 -171.27576 -18.810261 -58.410603
24330000000 -18.899738 -90.712997 -1.1731542 -171.35529 -1.1800636 -171.34898 -18.774214 -58.601807
24340000000 -18.902676 -90.572868 -1.1740652 -171.43367 -1.1809663 -171.41907 -18.750818 -58.652809
24350000000 -18.911255 -90.56559 -1.1746602 -171.50591 -1.1806095 -171.49004 -18.725485 -58.673805
24360000000 -18.926113 -90.470108 -1.1748804 -171.57883 -1.1818812 -171.5605 -18.703821 -58.54211
24370000000 -18.951948 -90.454536 -1.1748359 -171.65215 -1.180783 -171.64606 -18.712519 -58.387791
24380000000 -18.991144 -90.51709 -1.174664 -171.7247 -1.1812289 -171.72238 -18.729931 -58.210228
24390000000 -19.03561 -90.62616 -1.1735351 -171.8047 -1.1798357 -171.7993 -18.75913 -58.0676
24400000000 -19.074162 -90.770355 -1.1727923 -171.88567 -1.1788199 -171.86848 -18.803053 -57.897057
24410000000 -19.118744 -91.012306 -1.1718771 -171.96095 -1.1774553 -171.94319 -18.855158 -57.858234
24420000000 -19.153639 -91.361526 -1.1700261 -172.03053 -1.1774709 -172.01852 -18.897785 -57.93779
24430000000 -19.172331 -91.665993 -1.1700274 -172.09956 -1.1758009 -172.09369 -18.943048 -58.064205
24440000000 -19.175888 -92.027412 -1.1684753 -172.16623 -1.1752676 -172.15739 -18.981789 -58.271351
24450000000 -19.170317 -92.394241 -1.1688895 -172.24135 -1.1755373 -172.22365 -18.996881 -58.503574
24460000000 -19.146297 -92.6791 -1.168591 -172.30466 -1.1748482 -172.29034 -18.990725 -58.798798
24470000000 -19.110043 -92.798492 -1.1684444 -172.37076 -1.1755122 -172.35536 -18.976372 -59.008259
24480000000 -19.070559 -92.907669 -1.1687686 -172.44118 -1.1761776 -172.42618 -18.953493 -59.225281
24490000000 -19.039431 -92.985497 -1.1697495 -172.50847 -1.1766647 -172.50206 -18.92622 -59.307175
24500000000 -19.005932 -92.931335 -1.170705 -172.58191 -1.176162 -172.56764 -18.910542 -59.323895
24510000000 -18.973127 -92.7845 -1.1697448 -172.65379 -1.1770309 -172.6385 -18.892704 -59.324203
24520000000 -18.961121 -92.680901 -1.1701189 -172.72487 -1.176571 -172.71802 -18.892475 -59.265388
24530000000 -18.957924 -92.52549 -1.1704413 -172.80865 -1.1762805 -172.79173 -18.889853 -59.207134
24540000000 -18.946846 -92.393715 -1.1697465 -172.88733 -1.1763307 -172.86763 -18.909109 -59.252144
24550000000 -18.960291 -92.2687 -1.1693697 -172.95685 -1.1764902 -172.93935 -18.941486 -59.293037
24560000000 -18.980625 -92.258873 -1.1688391 -173.03011 -1.1755971 -173.01085 -18.963747 -59.351627
24570000000 -19.001654 -92.254181 -1.1680843 -173.10313 -1.1747525 -173.08307 -18.994095 -59.550323
24580000000 -19.01037 -92.282349 -1.1677476 -173.17184 -1.1743152 -173.15758 -19.017357 -59.764839
24590000000 -19.019573 -92.346664 -1.1680067 -173.23915 -1.1746863 -173.23561 -19.026817 -60.116783
24600000000 -19.018635 -92.388283 -1.1686006 -173.31227 -1.174359 -173.29889 -19.025927 -60.428787
24610000000 -19.012453 -92.422234 -1.169247 -173.38069 -1.1741459 -173.37018 -19.021305 -60.708839
24620000000 -19.002638 -92.446724 -1.1690837 -173.45554 -1.17582 -173.45212 -19.004717 -60.909386
24630000000 -18.991386 -92.433807 -1.1686243 -173.53114 -1.1753391 -173.51671 -18.976704 -61.067806
24640000000 -18.985163 -92.433167 -1.168771 -173.61096 -1.1751915 -173.59102 -18.952858 -61.158428
24650000000 -18.978006 -92.373245 -1.167821 -173.67438 -1.1759005 -173.67093 -18.929003 -61.197369
24660000000 -18.974445 -92.433014 -1.1691792 -173.75095 -1.176863 -173.74133 -18.908218 -61.206581
24670000000 -18.977047 -92.394096 -1.1688766 -173.82585 -1.1768188 -173.80914 -18.895269 -61.228554
24680000000 -18.983618 -92.429443 -1.168197 -173.89713 -1.1765666 -173.8779 -18.894547 -61.192062
24690000000 -19.001034 -92.514465 -1.1680081 -173.96411 -1.1758913 -173.95374 -18.901546 -61.208733
24700000000 -19.011129 -92.585281 -1.167773 -174.03467 -1.176349 -174.0239 -18.913956 -61.224739
24710000000 -19.031471 -92.712868 -1.1678983 -174.10707 -1.1753538 -174.10081 -18.934458 -61.261532
24720000000 -19.049124 -92.837486 -1.1676199 -174.17386 -1.1753775 -174.16293 -18.951916 -61.341484
24730000000 -19.057158 -93.036964 -1.1672162 -174.24713 -1.1753874 -174.23279 -18.962173 -61.471867
24740000000 -19.056299 -93.154411 -1.1675295 -174.31987 -1.1750599 -174.30794 -18.967777 -61.599262
24750000000 -19.059319 -93.266266 -1.1684431 -174.3943 -1.17565 -174.37875 -18.966736 -61.696533
24760000000 -19.060452 -93.361183 -1.1677839 -174.46106 -1.1749008 -174.45361 -18.954515 -61.729141
24770000000 -19.049395 -93.46106 -1.1682062 -174.53551 -1.1757158 -174.5253 -18.943733 -61.803261
24780000000 -19.035435 -93.557983 -1.1682492 -174.60951 -1.1744018 -174.59552 -18.935753 -61.833458
24790000000 -19.036461 -93.6679 -1.1679792 -174.67712 -1.1745025 -174.67029 -18.931475 -61.791363
24800000000 -19.045858 -93.718712 -1.1676998 -174.75049 -1.1750762 -174.73991 -18.929293 -61.724243
24810000000 -19.046545 -93.82679 -1.1669726 -174.82271 -1.1737789 -174.8116 -18.937643 -61.705433
24820000000 -19.060556 -93.942314 -1.1667728 -174.89484 -1.1731443 -174.89127 -18.950388 -61.606533
24830000000 -19.071043 -94.053734 -1.1667106 -174.96788 -1.1743332 -174.95856 -18.965134 -61.649719
24840000000 -19.08136 -94.192215 -1.1663445 -175.04132 -1.1736138 -175.03169 -18.99008 -61.599503
24850000000 -19.082462 -94.30825 -1.1675177 -175.10516 -1.1728877 -175.09583 -19.010635 -61.676365
24860000000 -19.079203 -94.418503 -1.1662128 -175.17976 -1.1722203 -175.1712 -19.038651 -61.727638
24870000000 -19.077656 -94.472031 -1.1657357 -175.25987 -1.1726044 -175.24438 -19.068674 -61.828671
24880000000 -19.068953 -94.502731 -1.1658159 -175.33127 -1.1736314 -175.32281 -19.090195 -61.956429
24890000000 -19.068935 -94.47361 -1.1651534 -175.40616 -1.1724946 -175.39919 -19.116638 -62.105656
24900000000 -19.064959 -94.498283 -1.1652238 -175.47632 -1.1728883 -175.46518 -19.134035 -62.344227
24910000000 -19.067287 -94.466187 -1.1647073 -175.55023 -1.1718941 -175.54262 -19.155102 -62.529987
24920000000 -19.075512 -94.384949 -1.1648606 -175.62653 -1.1715964 -175.61963 -19.169746 -62.732666
24930000000 -19.086357 -94.334091 -1.1631603 -175.70267 -1.171689 -175.68573 -19.174881 -62.916767
24940000000 -19.085773 -94.270996 -1.1633952 -175.77548 -1.1704077 -175.76221 -19.170694 -63.150673
24950000000 -19.084743 -94.274284 -1.1628031 -175.84135 -1.1705012 -175.83063 -19.15337 -63.381588
24960000000 -19.081305 -94.319801 -1.1624029 -175.91724 -1.1697594 -175.89471 -19.145166 -63.626129
24970000000 -19.080715 -94.376022 -1.1627926 -175.97934 -1.1712537 -175.96153 -19.122292 -63.774132
24980000000 -19.072203 -94.366539 -1.1626819 -176.04871 -1.1710856 -176.03146 -19.106852 -63.8964
24990000000 -19.059111 -94.364471 -1.1635174 -176.11775 -1.1708087 -176.11185 -19.085119 -63.964935
25000000000 -19.048845 -94.398697 -1.163915 -176.18564 -1.1718398 -176.17982 -19.067669 -64.028259
25010000000 -19.034193 -94.373589 -1.1647618 -176.25974 -1.1713721 -176.25137 -19.051601 -64.101555
25020000000 -19.028027 -94.360458 -1.1641488 -176.33147 -1.1719029 -176.31638 -19.044222 -64.118904
25030000000 -19.030037 -94.313957 -1.1639441 -176.39459 -1.1721542 -176.39067 -19.045942 -64.083885
25040000000 -19.044405 -94.241821 -1.1649923 -176.47169 -1.1723316 -176.46741 -19.050413 -63.995533
25050000000 -19.057167 -94.241234 -1.1641458 -176.54391 -1.1720518 -176.54054 -19.05855 -63.967442
25060000000 -19.07313 -94.194382 -1.1636679 -176.62405 -1.1721396 -176.61497 -19.070839 -63.947182
25070000000 -19.092373 -94.198486 -1.1624861 -176.69261 -1.1710771 -176.68202 -19.084278 -64.057083
25080000000 -19.118317 -94.19944 -1.1630731 -176.77283 -1.1703938 -176.7563 -19.089567 -64.051476
25090000000 -19.135094 -94.345528 -1.1625849 -176.83841 -1.1704915 -176.82921 -19.096573 -64.108742
25100000000 -19.148264 -94.411125 -1.163787 -176.9102 -1.1694171 -176.89714 -19.099483 -64.157036
25110000000 -19.16979 -94.502625 -1.164158 -176.97711 -1.1702694 -176.97043 -19.101841 -64.193169
25120000000 -19.173937 -94.704933 -1.1629446 -177.05383 -1.1712507 -177.03754 -19.103121 -64.178429
25130000000 -19.173782 -94.695549 -1.1639583 -177.12305 -1.1714727 -177.1082 -19.108389 -64.227127
25140000000 -19.170359 -94.848495 -1.1644359 -177.1911 -1.1724827 -177.17859 -19.111469 -64.263893
25150000000 -19.16511 -94.870399 -1.1656708 -177.25836 -1.1723115 -177.25238 -19.108135 -64.327728
25160000000 -19.162853 -94.915237 -1.1654513 -177.33493 -1.1723627 -177.32329 -19.117744 -64.304413
25170000000 -19.155277 -94.775795 -1.1663729 -177.41225 -1.1734048 -177.39297 -19.128025 -64.318336
25180000000 -19.166544 -94.797394 -1.166245 -177.47398 -1.1723952 -177.47035 -19.13212 -64.393883
25190000000 -19.169905 -94.797577 -1.1650989 -177.55295 -1.171792 -177.54161 -19.153706 -64.418503
25200000000 -19.187983 -94.807388 -1.1644765 -177.62001 -1.1716392 -177.60988 -19.171267 -64.53196
25210000000 -19.219879 -94.8563 -1.1637441 -177.69347 -1.171571 -177.67464 -19.187231 -64.663383
25220000000 -19.252632 -94.91777 -1.1631371 -177.76663 -1.1708304 -177.74683 -19.215788 -64.734047
25230000000 -19.276218 -95.044792 -1.163473 -177.83336 -1.17059 -177.81337 -19.227253 -64.859802
25240000000 -19.296614 -95.153084 -1.1626762 -177.89833 -1.1683662 -177.87692 -19.242407 -65.042297
25250000000 -19.30872 -95.355896 -1.1616492 -177.96608 -1.1689211 -177.95207 -19.259554 -65.17411
25260000000 -19.321653 -95.412621 -1.1620206 -178.03867 -1.1694629 -178.02898 -19.271374 -65.25267
25270000000 -19.326155 -95.550224 -1.1619215 -178.1111 -1.1700888 -178.0974 -19.279165 -65.244423
25280000000 -19.333319 -95.646126 -1.1625906 -178.18858 -1.169409 -178.17114 -19.298365 -65.314659
25290000000 -19.334444 -95.687759 -1.1616668 -178.26379 -1.1690685 -178.24927 -19.306746 -65.349762
25300000000 -19.337351 -95.767464 -1.1621177 -178.34351 -1.1686988 -178.31961 -19.31953 -65.48085
25310000000 -19.353765 -95.742836 -1.1613685 -178.41982 -1.1685257 -178.4057 -19.331442 -65.480988
25320000000 -19.358086 -95.793274 -1.1611277 -178.48659 -1.1662006 -178.46997 -19.350946 -65.563881
25330000000 -19.377121 -95.856171 -1.1599177 -178.55879 -1.1664343 -178.55147 -19.373356 -65.700188
25340000000 -19.39131 -95.833435 -1.1598781 -178.6342 -1.1660246 -178.62134 -19.401571 -65.853828
25350000000 -19.401356 -95.88797 -1.1600256 -178.69801 -1.1663123 -178.68893 -19.407692 -66.032364
25360000000 -19.403618 -95.924416 -1.1599884 -178.76941 -1.1648748 -178.75581 -19.411629 -66.254486
25370000000 -19.412397 -95.94928 -1.1592304 -178.84203 -1.1658437 -178.82629 -19.4186 -66.413704
25380000000 -19.411602 -96.028862 -1.1590773 -178.90512 -1.1658448 -178.90004 -19.416075 -66.586365
25390000000 -19.420357 -96.01918 -1.158793 -178.9767 -1.165664 -178.96657 -19.427816 -66.730125
25400000000 -19.420399 -96.000237 -1.1594434 -179.04999 -1.1658667 -179.03143 -19.409695 -66.811859
25410000000 -19.426825 -96.019188 -1.159954 -179.12273 -1.1670784 -179.11104 -19.408081 -66.942368
25420000000 -19.43494 -96.039253 -1.160875 -179.19388 -1.1664217 -179.18819 -19.405769 -67.014046
25430000000 -19.444601 -96.048973 -1.1607533 -179.27373 -1.1667193 -179.2623 -19.395674 -67.111824
25440000000 -19.471455 -96.091263 -1.1606656 -179.34917 -1.1664062 -179.32373 -19.404724 -67.156555
25450000000 -19.497343 -96.107056 -1.1597615 -179.41853 -1.1651287 -179.40262 -19.404802 -67.175301
25460000000 -19.512066 -96.264252 -1.158909 -179.49298 -1.1654242 -179.474 -19.402571 -67.291656
25470000000 -19.539728 -96.399437 -1.1592047 -179.55284 -1.1646999 -179.5488 -19.403019 -67.322334
25480000000 -19.561312 -96.557487 -1.1593416 -179.63414 -1.1642724 -179.61499 -19.380856 -67.378799
25490000000 -19.579578 -96.644485 -1.158675 -179.70656 -1.1645465 -179.69283 -19.367727 -67.360107
25500000000 -19.590185 -96.890778 -1.1591966 -179.7726 -1.164955 -179.75894 -19.348131 -67.286118
25510000000 -19.58997 -97.049431 -1.1604854 -179.84575 -1.1651738 -179.82889 -19.337923 -67.1931
25520000000 -19.603657 -97.16317 -1.1603837 -179.91272 -1.1664739 -179.89769 -19.323362 -67.041397
25530000000 -19.610039 -97.364746 -1.1616752 -179.98465 -1.1667495 -179.97844 -19.325714 -66.85878
25540000000 -19.622007 -97.61142 -1.1624299 179.93721 -1.1678956 179.95552 -19.337267 -66.716545
25550000000 -19.637373 -97.747765 -1.1634947 179.86687 -1.1679196 179.88231 -19.357481 -66.576385
25560000000 -19.651747 -97.899773 -1.1631989 179.7946 -1.1688869 179.80147 -19.405462 -66.388191
25570000000 -19.670275 -98.079079 -1.1631546 179.71126 -1.16844 179.72479 -19.445534 -66.320686
25580000000 -19.696018 -98.194923 -1.1632545 179.63759 -1.1679562 179.65593 -19.491276 -66.296043
25590000000 -19.696394 -98.362198 -1.1624651 179.55899 -1.1676697 179.57716 -19.533293 -66.427086
25600000000 -19.716352 -98.483566 -1.1619716 179.48752 -1.1664535 179.49649 -19.572594 -66.632591
25610000000 -19.722561 -98.58149 -1.1615099 179.41069 -1.1679064 179.43085 -19.604824 -66.929855
25620000000 -19.715042 -98.644081 -1.1604618 179.3372 -1.1660868 179.35037 -19.62726 -67.237045
25630000000 -19.727594 -98.747505 -1.159346 179.27116 -1.1656183 179.2829 -19.646652 -67.557655
25640000000 -19.725346 -98.756859 -1.1597807 179.198 -1.1647577 179.21561 -19.644028 -67.725441
25650000000 -19.717962 -98.742973 -1.16032 179.12523 -1.1650177 179.15247 -19.638391 -68.024208
25660000000 -19.724678 -98.771828 -1.1592016 179.06091 -1.165238 179.06964 -19.626373 -68.181763
25670000000 -19.725481 -98.805908 -1.1606901 178.98979 -1.1659114 179.00217 -19.613171 -68.296471
25680000000 -19.730261 -98.791275 -1.1607844 178.92276 -1.1665778 178.92061 -19.594601 -68.300346
25690000000 -19.752939 -98.934715 -1.1601033 178.84746 -1.1660746 178.85698 -19.587662 -68.375252
25700000000 -19.741325 -99.004494 -1.160318 178.77489 -1.1670262 178.78406 -19.582441 -68.325638
25710000000 -19.754093 -99.035934 -1.1603353 178.69673 -1.1656656 178.70654 -19.582165 -68.311234
25720000000 -19.759048 -99.146919 -1.1601669 178.62451 -1.1647145 178.63126 -19.593609 -68.374672
25730000000 -19.758339 -99.26638 -1.159532 178.55135 -1.1659216 178.5565 -19.606005 -68.468903
25740000000 -19.752705 -99.365738 -1.1590263 178.48163 -1.1653874 178.49297 -19.61919 -68.672806
25750000000 -19.737288 -99.355186 -1.1591949 178.40318 -1.1660424 178.41461 -19.627188 -69.019279
25760000000 -19.722326 -99.330551 -1.1592764 178.3307 -1.1653386 178.34151 -19.613468 -69.325592
25770000000 -19.697367 -99.383537 -1.1596997 178.27246 -1.1653261 178.28149 -19.592091 -69.697762
25780000000 -19.680874 -99.309052 -1.1592321 178.20293 -1.1651453 178.22073 -19.551355 -69.898018
25790000000 -19.682629 -99.171219 -1.1591662 178.14629 -1.165707 178.15057 -19.509377 -70.069466
25800000000 -19.685057 -99.043701 -1.159418 178.07635 -1.1661041 178.08336 -19.467678 -70.099335
25810000000 -19.703238 -98.952766 -1.1604732 178.00641 -1.1660601 178.0215 -19.421082 -70.026878
25820000000 -19.748487 -98.878212 -1.1608808 177.93774 -1.1656209 177.95053 -19.382458 -69.705345
25830000000 -19.786463 -98.85006 -1.1606426 177.86531 -1.166077 177.88405 -19.356846 -69.371094
25840000000 -19.84779 -98.929031 -1.1611174 177.79672 -1.1664112 177.81215 -19.360466 -68.923317
25850000000 -19.913279 -99.101616 -1.1600983 177.73325 -1.1665436 177.74716 -19.376833 -68.462494
25860000000 -19.978992 -99.303352 -1.1596327 177.6635 -1.1663994 177.67445 -19.414059 -67.962349
25870000000 -20.046396 -99.544655 -1.1586733 177.58046 -1.1655813 177.6013 -19.472893 -67.579834
25880000000 -20.090412 -99.727867 -1.1585594 177.51469 -1.165316 177.52237 -19.540329 -67.218712
25890000000 -20.126173 -100.02885 -1.1571113 177.43484 -1.1655729 177.45389 -19.620449 -67.136818
25900000000 -20.157261 -100.26147 -1.1575212 177.36465 -1.1652472 177.38097 -19.693949 -67.098686
25910000000 -20.176044 -100.43352 -1.1582667 177.28958 -1.1648328 177.30693 -19.768221 -67.229774
25920000000 -20.181595 -100.57894 -1.1578429 177.20868 -1.1655668 177.23038 -19.813623 -67.51416
25930000000 -20.188875 -100.76664 -1.1591949 177.14313 -1.1646528 177.15321 -19.852404 -67.871025
25940000000 -20.195078 -100.84388 -1.1589586 177.07008 -1.1648231 177.08073 -19.866564 -68.280235
25950000000 -20.183657 -100.90924 -1.1584823 176.99091 -1.1652025 177.00854 -19.854847 -68.721504
25960000000 -20.172768 -101.0291 -1.1590776 176.91513 -1.1662189 176.92784 -19.826181 -69.084175
25970000000 -20.168854 -101.08613 -1.1584451 176.83774 -1.1653606 176.86063 -19.785419 -69.301628
25980000000 -20.159254 -101.25654 -1.1589228 176.76854 -1.1656717 176.78493 -19.751074 -69.603302
25990000000 -20.157743 -101.3819 -1.1590374 176.69443 -1.1651622 176.70282 -19.715937 -69.694412
26000000000 -20.160582 -101.44383 -1.1576959 176.63304 -1.1637369 176.64038 -19.668644 -69.707977
26010000000 -20.151617 -101.54464 -1.1584158 176.56448 -1.164623 176.57669 -19.659344 -69.737938
26020000000 -20.158813 -101.68105 -1.1581886 176.49388 -1.1641651 176.50829 -19.651297 -69.643372
26030000000 -20.179728 -101.63628 -1.1573393 176.43295 -1.1630511 176.44733 -19.649336 -69.617546
26040000000 -20.187801 -101.70409 -1.1581386 176.36804 -1.1631675 176.37978 -19.665333 -69.586113
26050000000 -20.212915 -101.70396 -1.1577239 176.29646 -1.163646 176.31799 -19.694252 -69.554039
26060000000 -20.234983 -101.70225 -1.1582383 176.22227 -1.1634314 176.24335 -19.692606 -69.56897
26070000000 -20.276863 -101.74672 -1.1575537 176.15062 -1.1641817 176.16402 -19.71217 -69.674545
26080000000 -20.311829 -101.79407 -1.1575931 176.07767 -1.1642988 176.10202 -19.702335 -69.746712
26090000000 -20.365271 -101.79969 -1.1568582 176.00137 -1.1631016 176.01567 -19.709494 -69.696327
26100000000 -20.417076 -101.96018 -1.1570011 175.93471 -1.1632453 175.9438 -19.704479 -69.584198
26110000000 -20.468079 -102.12169 -1.1557148 175.8643 -1.1633478 175.86382 -19.677513 -69.474373
26120000000 -20.506069 -102.40696 -1.1560957 175.78554 -1.1613806 175.79575 -19.662945 -69.327637
26130000000 -20.551075 -102.74821 -1.1552868 175.71748 -1.1619624 175.73235 -19.64942 -69.077606
26140000000 -20.571602 -103.07159 -1.154302 175.64175 -1.161797 175.66222 -19.639204 -68.868446
26150000000 -20.609211 -103.42434 -1.1542915 175.57773 -1.1612118 175.58551 -19.634951 -68.57431
26160000000 -20.621105 -103.87555 -1.1550611 175.50375 -1.16155 175.52202 -19.636497 -68.311737
26170000000 -20.631277 -104.0764 -1.1545671 175.43805 -1.1598778 175.4503 -19.650284 -68.023811
26180000000 -20.642508 -104.34228 -1.1541456 175.37062 -1.1607877 175.38191 -19.666426 -67.698082
26190000000 -20.645771 -104.54677 -1.1543425 175.29877 -1.161059 175.315 -19.690969 -67.585861
26200000000 -20.641531 -104.77715 -1.1559123 175.22766 -1.162208 175.2377 -19.726101 -67.505089
26210000000 -20.646597 -104.9222 -1.156261 175.15297 -1.1631455 175.1647 -19.766886 -67.428215
26220000000 -20.638079 -105.02615 -1.1567576 175.07884 -1.1628393 175.08771 -19.792252 -67.459702
26230000000 -20.651413 -105.08575 -1.1566224 175.01181 -1.1631343 175.00539 -19.841204 -67.483673
26240000000 -20.661791 -105.13682 -1.1559498 174.92975 -1.1632792 174.94173 -19.883419 -67.581429
26250000000 -20.683077 -105.05853 -1.1549106 174.85728 -1.1614648 174.86343 -19.925156 -67.669281
26260000000 -20.705112 -105.10528 -1.1540065 174.77412 -1.1617144 174.7933 -19.959291 -67.925529
26270000000 -20.712906 -105.16857 -1.1556671 174.69473 -1.1601882 174.72057 -19.98123 -68.140495
26280000000 -20.760349 -105.09921 -1.1544935 174.62471 -1.1600201 174.65802 -20.003138 -68.396561
26290000000 -20.789492 -105.13062 -1.1535673 174.56776 -1.1594644 174.58199 -20.040388 -68.675209
26300000000 -20.815821 -105.27477 -1.1532952 174.48976 -1.1596864 174.50859 -20.030937 -68.897621
26310000000 -20.842287 -105.30751 -1.1535531 174.423 -1.1604202 174.43015 -20.015118 -69.180183
26320000000 -20.857347 -105.4241 -1.1545471 174.34482 -1.160243 174.3605 -19.98842 -69.432961
26330000000 -20.864683 -105.43966 -1.1535217 174.27823 -1.161152 174.2858 -19.954145 -69.504654
26340000000 -20.883751 -105.56945 -1.1541953 174.20068 -1.1608293 174.20975 -19.908764 -69.532066
26350000000 -20.888727 -105.71693 -1.1543169 174.12413 -1.1605003 174.13808 -19.856812 -69.492157
26360000000 -20.889467 -105.87775 -1.1551597 174.05634 -1.1601486 174.06363 -19.826796 -69.314499
26370000000 -20.911589 -106.08335 -1.1535268 173.98531 -1.1593666 173.99907 -19.797781 -69.154663
26380000000 -20.922092 -106.225 -1.1539414 173.91231 -1.1582025 173.92235 -19.784145 -68.98764
26390000000 -20.932226 -106.38248 -1.1525613 173.84454 -1.1589156 173.8604 -19.792812 -68.671677
26400000000 -20.959066 -106.61097 -1.1532469 173.7773 -1.1588416 173.79253 -19.798944 -68.436111
26410000000 -20.967335 -106.84762 -1.1528567 173.70816 -1.1588322 173.71777 -19.805401 -68.250153
26420000000 -20.98801 -107.07458 -1.1530092 173.64149 -1.1586442 173.64401 -19.818403 -68.18586
26430000000 -21.017302 -107.327 -1.1538171 173.5661 -1.1588309 173.58052 -19.834923 -68.05246
26440000000 -21.05196 -107.4898 -1.1547464 173.50026 -1.1594958 173.51862 -19.847532 -67.887299
26450000000 -21.082729 -107.69098 -1.1539707 173.43663 -1.1585983 173.44514 -19.858133 -67.859009
26460000000 -21.122906 -107.94639 -1.153651 173.36095 -1.1576905 173.38103 -19.873419 -67.706413
26470000000 -21.160055 -108.13741 -1.1535754 173.29645 -1.1584945 173.31381 -19.869392 -67.645294
26480000000 -21.197094 -108.39561 -1.1524506 173.2258 -1.1581059 173.23582 -19.886028 -67.377243
26490000000 -21.225477 -108.44879 -1.1522154 173.14729 -1.1572927 173.16451 -19.906822 -67.107391
26500000000 -21.274628 -108.63978 -1.152079 173.0789 -1.1576601 173.09064 -19.932215 -66.818672
26510000000 -21.298941 -108.68183 -1.1521761 173.00273 -1.1593078 173.01854 -19.987217 -66.639175
26520000000 -21.317577 -108.90786 -1.1512485 172.92369 -1.1552982 172.935 -20.017378 -66.292007
26530000000 -21.368603 -108.92167 -1.1508794 172.84442 -1.1539987 172.86385 -20.09446 -66.203232
26540000000 -21.394625 -108.89405 -1.1495782 172.7533 -1.1556427 172.7847 -20.146605 -66.205864
26550000000 -21.448729 -109.01568 -1.1499252 172.69337 -1.1576635 172.70805 -20.221321 -66.312477
26560000000 -21.475203 -109.10582 -1.1529006 172.62889 -1.1559342 172.63762 -20.282095 -66.596596
26570000000 -21.503428 -109.18533 -1.1489882 172.54898 -1.1568383 172.55321 -20.305445 -67.145866
26580000000 -21.53421 -109.63276 -1.1516724 172.47752 -1.1564568 172.48093 -20.341721 -67.44912
26590000000 -21.52792 -109.69767 -1.1501031 172.3909 -1.156522 172.4332 -20.319147 -67.7164
26600000000 -21.539444 -109.94543 -1.1516916 172.31064 -1.1561785 172.32387 -20.307816 -68.059105
26610000000 -21.537924 -109.94745 -1.1478542 172.23685 -1.1561562 172.26884 -20.264076 -68.515572
26620000000 -21.541555 -110.17418 -1.1492891 172.19069 -1.157338 172.18919 -20.218119 -68.752274
26630000000 -21.51989 -110.24711 -1.1512495 172.10092 -1.1555836 172.1095 -20.18759 -68.775116
26640000000 -21.539459 -110.33289 -1.1483893 172.03017 -1.1595134 172.05772 -20.138418 -68.406998
26650000000 -21.540012 -110.47763 -1.1478498 171.95961 -1.1570417 171.97203 -20.106749 -68.188255
26660000000 -21.571255 -110.39767 -1.1489269 171.88379 -1.1553117 171.9082 -20.093761 -67.801208
26670000000 -21.615732 -110.32875 -1.1486726 171.81943 -1.1546184 171.84145 -20.116922 -67.710739
26680000000 -21.690796 -110.54742 -1.1492696 171.74461 -1.15438 171.78052 -20.145262 -67.34362
26690000000 -21.732779 -110.77829 -1.1499149 171.68811 -1.1538701 171.7019 -20.199244 -67.212822
26700000000 -21.826214 -111.13797 -1.1501293 171.62416 -1.1543837 171.63155 -20.247377 -67.236816
26710000000 -21.875994 -111.41434 -1.1488 171.53038 -1.1544015 171.56296 -20.233318 -67.302681
26720000000 -21.91824 -111.91685 -1.1482564 171.45352 -1.1559005 171.47441 -20.260818 -67.500275
26730000000 -21.9617 -112.43087 -1.1497943 171.37335 -1.1557153 171.40704 -20.253143 -67.566696
26740000000 -21.99872 -113.12634 -1.1490675 171.32953 -1.1544979 171.34576 -20.27141 -67.80825
26750000000 -21.955112 -113.49672 -1.1516895 171.23128 -1.1548393 171.2608 -20.229383 -67.799973
26760000000 -21.943117 -113.97226 -1.1462246 171.15851 -1.1556864 171.17839 -20.191093 -67.984749
26770000000 -21.897261 -114.31228 -1.1498402 171.07436 -1.1561066 171.11584 -20.145351 -67.829025
26780000000 -21.870926 -114.91739 -1.1468152 171.01657 -1.1544789 171.02847 -20.127844 -67.641663
26790000000 -21.857714 -114.97105 -1.1486527 170.94281 -1.1537682 170.95187 -20.104824 -67.451332
26800000000 -21.876255 -115.02393 -1.147194 170.88255 -1.1532522 170.89734 -20.115591 -67.125221
26810000000 -21.86055 -114.87671 -1.1473845 170.79794 -1.1547676 170.83301 -20.128151 -66.98291
26820000000 -21.895201 -115.1076 -1.14902 170.75076 -1.1523247 170.73532 -20.13726 -66.584122
26830000000 -21.907396 -115.09089 -1.1478144 170.66106 -1.1524739 170.68391 -20.176321 -66.695908
26840000000 -21.978548 -115.33261 -1.1466088 170.59808 -1.1522613 170.61293 -20.196276 -66.626862
26850000000 -22.016277 -115.5429 -1.148219 170.50507 -1.1526511 170.55424 -20.236115 -66.917328
26860000000 -22.055676 -115.74967 -1.1459566 170.44846 -1.1517463 170.47287 -20.245289 -66.764053
26870000000 -22.112261 -116.41264 -1.1468509 170.39877 -1.1530858 170.40175 -20.260862 -67.017189
26880000000 -22.132187 -116.70931 -1.14613 170.30191 -1.1528391 170.33762 -20.236427 -66.985176
26890000000 -22.132904 -117.03787 -1.1489036 170.24338 -1.1514057 170.26125 -20.23642 -67.057465
26900000000 -22.146164 -117.40286 -1.1474743 170.18486 -1.1505474 170.19615 -20.217916 -66.839851
26910000000 -22.126568 -117.72038 -1.1461198 170.09755 -1.1514449 170.10831 -20.213413 -66.810158
26920000000 -22.108166 -117.85661 -1.1449332 170.02313 -1.1514149 170.04736 -20.210871 -66.686508
26930000000 -22.120234 -118.09374 -1.1444478 169.96043 -1.1488577 169.98215 -20.225779 -66.457756
26940000000 -22.103436 -118.17046 -1.1443443 169.89574 -1.1499796 169.90041 -20.239382 -66.263489
26950000000 -22.123898 -118.17666 -1.142881 169.8037 -1.148739 169.83873 -20.244827 -66.149261
26960000000 -22.135887 -118.33195 -1.1434971 169.74689 -1.1490891 169.74953 -20.271204 -66.263275
26970000000 -22.158102 -118.40842 -1.1454606 169.66986 -1.1512684 169.67413 -20.302105 -66.260963
26980000000 -22.204973 -118.4706 -1.1454279 169.58214 -1.1509198 169.60902 -20.304668 -66.292427
26990000000 -22.262011 -118.76486 -1.1449714 169.53505 -1.1479298 169.56033 -20.30514 -66.463264
27000000000 -22.278963 -118.95273 -1.1459351 169.44795 -1.1498338 169.46323 -20.301582 -66.672691
27010000000 -22.285429 -119.19184 -1.1432515 169.36209 -1.1488385 169.39644 -20.294498 -66.586349
27020000000 -22.331612 -119.40665 -1.1447365 169.29942 -1.148904 169.32375 -20.266375 -66.470253
27030000000 -22.354013 -119.68626 -1.1446065 169.22006 -1.1489016 169.23892 -20.254831 -66.548859
27040000000 -22.40004 -119.85302 -1.1426389 169.16267 -1.1473451 169.16403 -20.247385 -66.365776
27050000000 -22.43684 -120.0907 -1.1408558 169.07396 -1.1480558 169.09615 -20.260508 -66.017723
27060000000 -22.45347 -120.53745 -1.1431159 169.01599 -1.1483967 169.03474 -20.268135 -65.861343
27070000000 -22.453793 -120.92583 -1.143353 168.94293 -1.1476901 168.96045 -20.277267 -65.797112
27080000000 -22.474623 -121.06621 -1.1390307 168.86537 -1.1470885 168.88133 -20.282055 -65.719688
27090000000 -22.492212 -121.40292 -1.1411864 168.78064 -1.147602 168.80721 -20.304619 -65.667725
27100000000 -22.518915 -121.78979 -1.1412517 168.71533 -1.145349 168.73619 -20.316214 -65.631859
27110000000 -22.530809 -122.60126 -1.141616 168.65176 -1.1482444 168.66342 -20.344469 -65.6371
27120000000 -22.531342 -122.77635 -1.1433694 168.56949 -1.1481115 168.58984 -20.329357 -65.808235
27130000000 -22.509296 -123.02246 -1.1432478 168.47351 -1.1492976 168.50816 -20.298971 -65.764832
27140000000 -22.517902 -123.50526 -1.1449265 168.41801 -1.1491005 168.42564 -20.283333 -65.9104
27150000000 -22.48163 -123.7589 -1.1433668 168.34163 -1.1487043 168.35535 -20.243433 -65.788681
27160000000 -22.456787 -123.66859 -1.1400944 168.25641 -1.1478022 168.26862 -20.211296 -65.525299
27170000000 -22.427464 -123.91911 -1.1427588 168.18739 -1.1481338 168.19376 -20.214132 -65.380333
27180000000 -22.426847 -123.90434 -1.1412891 168.12831 -1.1468327 168.15137 -20.210957 -65.064888
27190000000 -22.402779 -123.99165 -1.1430795 168.05597 -1.1476991 168.06548 -20.223875 -64.902817
27200000000 -22.411427 -123.86346 -1.1410446 168.00041 -1.1462004 167.99773 -20.275734 -64.758804
27210000000 -22.418413 -123.54327 -1.1424662 167.93053 -1.1477004 167.92542 -20.330038 -64.677711
27220000000 -22.419609 -123.38479 -1.1432061 167.83521 -1.1464642 167.84406 -20.386787 -64.936783
27230000000 -22.464321 -123.03646 -1.1442338 167.76933 -1.1484386 167.77061 -20.472725 -65.097443
27240000000 -22.57295 -123.16192 -1.1455334 167.69698 -1.1481684 167.73395 -20.492588 -65.229645
27250000000 -22.62822 -122.84647 -1.1426793 167.63588 -1.1491811 167.64165 -20.502312 -65.647766
27260000000 -22.743032 -122.95241 -1.1426551 167.54607 -1.149704 167.56844 -20.499495 -66.00943
27270000000 -22.810341 -123.19178 -1.1417278 167.46423 -1.1476728 167.48248 -20.468565 -66.189621
27280000000 -22.94364 -123.51594 -1.1425194 167.41728 -1.1480895 167.42073 -20.445923 -66.331566
27290000000 -23.014021 -124.02802 -1.1412473 167.33136 -1.1484861 167.35446 -20.407598 -66.018845
27300000000 -23.082451 -124.92137 -1.1398498 167.27652 -1.1464288 167.28137 -20.338478 -65.685661
27310000000 -23.18189 -125.65103 -1.1416001 167.19556 -1.1467528 167.22501 -20.299774 -65.245667
27320000000 -23.184259 -126.23233 -1.1410289 167.14235 -1.1464626 167.15341 -20.315172 -64.785194
27330000000 -23.181295 -127.26429 -1.1394492 167.05811 -1.1468958 167.08768 -20.325285 -64.264534
27340000000 -23.188622 -127.61427 -1.1414156 166.99051 -1.1462789 167.00664 -20.339273 -63.600224
27350000000 -23.171267 -128.20595 -1.1391854 166.93741 -1.1459749 166.93054 -20.396738 -63.304565
27360000000 -23.170811 -128.44438 -1.1400752 166.83937 -1.1457107 166.85704 -20.438704 -63.14185
27370000000 -23.165358 -128.82603 -1.1404418 166.76599 -1.1452479 166.80475 -20.479 -63.046463
27380000000 -23.14246 -128.77124 -1.1402014 166.6978 -1.1479125 166.70071 -20.506485 -63.212425
27390000000 -23.172674 -128.98083 -1.1374683 166.64006 -1.145528 166.64763 -20.55587 -63.508194
27400000000 -23.163673 -129.08542 -1.1400197 166.54709 -1.1447325 166.55994 -20.552294 -64.004837
27410000000 -23.180742 -129.28488 -1.1380378 166.47328 -1.1428932 166.49498 -20.525229 -64.119965
27420000000 -23.179893 -129.83531 -1.1386838 166.4115 -1.1438158 166.42958 -20.510984 -64.228745
27430000000 -23.137899 -129.92262 -1.1374632 166.31386 -1.1437901 166.33817 -20.42099 -64.515282
27440000000 -23.155449 -130.45323 -1.1378299 166.27122 -1.1430764 166.27934 -20.409872 -64.301575
27450000000 -23.200327 -130.65759 -1.1360248 166.19763 -1.1420772 166.19614 -20.319786 -64.001732
27460000000 -23.208 -131.04958 -1.1359304 166.14029 -1.140149 166.12816 -20.289612 -63.925102
27470000000 -23.167603 -131.77425 -1.1365085 166.07042 -1.1453999 166.07214 -20.32148 -63.421211
27480000000 -23.135391 -131.60628 -1.1380546 165.98538 -1.1413022 166.01219 -20.321051 -62.873074
27490000000 -23.141132 -131.93303 -1.1369635 165.91855 -1.1402808 165.93169 -20.34697 -62.592297
27500000000 -23.163923 -132.03749 -1.1350223 165.84427 -1.1408299 165.84012 -20.389975 -62.378384
27510000000 -23.183231 -131.97029 -1.1346098 165.7592 -1.1413968 165.77443 -20.447027 -62.30862
27520000000 -23.160269 -132.08258 -1.1369087 165.68874 -1.1411662 165.69373 -20.533136 -62.248287
27530000000 -23.198652 -131.73889 -1.136914 165.59978 -1.1416708 165.6138 -20.585257 -62.773346
27540000000 -23.282804 -132.02991 -1.1348948 165.54393 -1.1419076 165.54594 -20.595591 -62.948601
27550000000 -23.300196 -132.32222 -1.1362895 165.4516 -1.1412133 165.46422 -20.606337 -63.45137
27560000000 -23.339859 -132.61119 -1.1357868 165.38104 -1.1430495 165.37991 -20.591908 -63.613644
27570000000 -23.335264 -132.94281 -1.134823 165.30212 -1.1396071 165.33159 -20.539066 -63.964321
27580000000 -23.361591 -133.36153 -1.1357269 165.22888 -1.1407847 165.24654 -20.476126 -64.09436
27590000000 -23.338509 -133.82339 -1.1359788 165.14314 -1.1397831 165.16718 -20.39517 -64.212669
27600000000 -23.320049 -134.56679 -1.1383705 165.08902 -1.1417083 165.0937 -20.35383 -64.011513
27610000000 -23.292639 -134.83792 -1.1362081 165.00745 -1.1418819 165.01216 -20.256723 -63.947483
27620000000 -23.280891 -134.93813 -1.1374798 164.93127 -1.143068 164.93602 -20.20348 -63.58215
27630000000 -23.239466 -135.20618 -1.1385572 164.8418 -1.1443635 164.86917 -20.169247 -63.072071
27640000000 -23.251726 -135.24304 -1.1384035 164.79675 -1.1407713 164.79312 -20.13727 -62.761562
27650000000 -23.250521 -135.62251 -1.1393634 164.72008 -1.1417913 164.73491 -20.137514 -62.299194
27660000000 -23.241306 -135.88084 -1.1383015 164.64003 -1.143424 164.64951 -20.115892 -62.018944
27670000000 -23.246433 -135.85666 -1.1380943 164.55225 -1.1417968 164.567 -20.138361 -61.611073
27680000000 -23.352726 -136.147 -1.1367166 164.50862 -1.141621 164.50848 -20.159437 -61.198612
27690000000 -23.385916 -136.63722 -1.1358473 164.43315 -1.1410871 164.42212 -20.19614 -60.944569
27700000000 -23.463198 -137.18015 -1.1356527 164.35219 -1.1401974 164.37105 -20.220461 -60.752464
27710000000 -23.466742 -137.69592 -1.1365451 164.29851 -1.1404977 164.31552 -20.262152 -60.533154
27720000000 -23.474669 -138.36792 -1.1347315 164.22356 -1.140434 164.22873 -20.281219 -60.617241
27730000000 -23.49955 -138.85886 -1.1353171 164.15215 -1.1413685 164.17064 -20.278889 -60.53624
27740000000 -23.458714 -139.34796 -1.1347873 164.09317 -1.1414742 164.08722 -20.316866 -60.508934
27750000000 -23.444565 -139.5827 -1.135079 164.01016 -1.1415287 164.01495 -20.280703 -60.314026
27760000000 -23.37236 -139.69423 -1.1343211 163.91412 -1.1407986 163.94304 -20.290209 -60.323017
27770000000 -23.385988 -139.82065 -1.1339372 163.86282 -1.14057 163.86868 -20.327179 -60.174023
27780000000 -23.368996 -139.76959 -1.1340313 163.78555 -1.140978 163.80826 -20.352358 -60.158607
27790000000 -23.407986 -139.77527 -1.1353235 163.70842 -1.1418079 163.72719 -20.378937 -60.024113
27800000000 -23.389986 -139.34915 -1.1347284 163.64073 -1.1404209 163.66049 -20.413084 -60.093468
27810000000 -23.431753 -138.9837 -1.1344306 163.56166 -1.1391155 163.57094 -20.415358 -59.935738
27820000000 -23.492987 -139.02081 -1.1328478 163.47626 -1.1396919 163.52312 -20.420561 -59.900841
27830000000 -23.593243 -139.1604 -1.1344491 163.41432 -1.1378491 163.42957 -20.454185 -59.886478
27840000000 -23.620787 -139.4758 -1.1310921 163.34917 -1.1387019 163.36275 -20.511583 -59.940445
27850000000 -23.660202 -139.4715 -1.1330047 163.27927 -1.1382204 163.28366 -20.532133 -60.109512
27860000000 -23.712654 -139.59377 -1.1317464 163.21712 -1.1385751 163.21844 -20.571203 -60.434334
27870000000 -23.766205 -139.93898 -1.1323018 163.14143 -1.1389314 163.15411 -20.544884 -60.600807
27880000000 -23.744825 -139.94559 -1.1311085 163.06847 -1.1391444 163.05441 -20.533667 -60.783356
27890000000 -23.802034 -140.53931 -1.1353776 162.99728 -1.1416086 162.9944 -20.493624 -61.046818
27900000000 -23.875929 -140.83949 -1.1330224 162.9272 -1.1399096 162.9296 -20.49543 -61.060711
27910000000 -23.875654 -141.16809 -1.1366826 162.84329 -1.141382 162.84262 -20.436934 -61.236931
27920000000 -23.939926 -141.33295 -1.1351187 162.76999 -1.1396478 162.76617 -20.337755 -61.018185
27930000000 -23.958294 -141.6599 -1.1345106 162.69348 -1.1408279 162.68625 -20.302168 -60.767212
27940000000 -24.012306 -142.48199 -1.1350452 162.60358 -1.1406976 162.62387 -20.276222 -60.57634
27950000000 -24.096804 -143.12448 -1.1337013 162.56412 -1.1411217 162.56059 -20.226513 -59.787666
27960000000 -24.160326 -143.8837 -1.1331118 162.46593 -1.1385872 162.4883 -20.221699 -59.159321
27970000000 -24.124504 -144.78429 -1.1341833 162.39166 -1.14185 162.40486 -20.210173 -58.715618
27980000000 -24.12776 -145.59241 -1.1340902 162.32741 -1.1414082 162.33014 -20.240524 -58.397987
27990000000 -24.182123 -146.59288 -1.1336849 162.26222 -1.1409097 162.28186 -20.271112 -57.929272
28000000000 -24.164043 -147.10387 -1.1345524 162.19928 -1.1411153 162.19496 -20.278246 -57.614052
28010000000 -24.162901 -147.83325 -1.1332768 162.13921 -1.1385415 162.13782 -20.325743 -57.355667
28020000000 -24.141581 -148.47467 -1.1338331 162.08119 -1.1388738 162.06711 -20.362709 -57.222202
28030000000 -24.02257 -148.53619 -1.1344646 161.98064 -1.1382675 161.99062 -20.398529 -57.200275
28040000000 -24.027212 -148.47734 -1.1338542 161.89371 -1.1392676 161.91473 -20.379532 -57.454956
28050000000 -23.945578 -148.64281 -1.1337497 161.83339 -1.1377909 161.83191 -20.389881 -57.201832
28060000000 -23.968742 -148.55524 -1.1345829 161.75946 -1.1395458 161.7697 -20.399332 -57.2892
28070000000 -23.934242 -148.36639 -1.1344293 161.67255 -1.1382605 161.6787 -20.393297 -57.169289
28080000000 -23.94768 -148.42192 -1.1343294 161.60396 -1.1361641 161.62016 -20.391287 -57.136639
28090000000 -24.016115 -148.42514 -1.1294181 161.53922 -1.1370143 161.54167 -20.38007 -56.831989
28100000000 -24.064085 -148.88477 -1.1299148 161.45201 -1.1365401 161.45824 -20.414946 -56.850723
28110000000 -24.110758 -148.76993 -1.1324707 161.40906 -1.1368736 161.3988 -20.422493 -56.455219
28120000000 -24.17614 -148.86719 -1.132117 161.30759 -1.1366376 161.33716 -20.467291 -56.273426
28130000000 -24.262255 -149.40172 -1.1314925 161.24786 -1.1369786 161.25519 -20.495075 -56.179703
28140000000 -24.284216 -149.63712 -1.1313827 161.17039 -1.1360935 161.16985 -20.529684 -56.232117
28150000000 -24.377094 -150.10538 -1.1309843 161.11418 -1.1339641 161.10847 -20.562103 -56.257862
28160000000 -24.361891 -150.47083 -1.1308631 161.02214 -1.1338925 161.02437 -20.589615 -56.481033
28170000000 -24.388903 -150.98523 -1.1273857 160.9451 -1.1349896 160.97481 -20.597519 -56.542713
28180000000 -24.369137 -151.42984 -1.1316013 160.87209 -1.136618 160.89018 -20.565351 -56.892906
28190000000 -24.374466 -151.57813 -1.1333679 160.7937 -1.136505 160.81271 -20.509735 -57.080341
28200000000 -24.340393 -152.24689 -1.1308906 160.71779 -1.1397787 160.72929 -20.477253 -56.968536
28210000000 -24.295504 -152.66391 -1.1316823 160.65506 -1.1351634 160.66002 -20.426054 -57.083462
28220000000 -24.263384 -153.17143 -1.1339225 160.55902 -1.1380923 160.58221 -20.37899 -56.722633
28230000000 -24.257214 -153.34668 -1.1331767 160.48399 -1.1361759 160.50002 -20.297548 -56.541691
28240000000 -24.224277 -153.5974 -1.1303986 160.42349 -1.1387767 160.42125 -20.309269 -56.059254
28250000000 -24.252562 -154.03899 -1.1289494 160.35547 -1.1359811 160.35277 -20.286913 -55.684772
28260000000 -24.265024 -154.10234 -1.1285735 160.26913 -1.138026 160.28725 -20.304005 -55.183964
28270000000 -24.237085 -153.99829 -1.1301253 160.20711 -1.1364697 160.22105 -20.320236 -54.756836
28280000000 -24.295212 -154.45322 -1.1297791 160.12981 -1.1336001 160.14265 -20.340899 -54.734867
28290000000 -24.353559 -154.45834 -1.1304946 160.06583 -1.1334896 160.07033 -20.428543 -54.54295
28300000000 -24.344959 -154.49414 -1.1323377 159.97833 -1.1357064 159.98845 -20.442503 -54.528954
28310000000 -24.458609 -154.80222 -1.1264163 159.91542 -1.1343126 159.92184 -20.451361 -54.416725
28320000000 -24.492844 -155.26572 -1.1309494 159.84499 -1.1349355 159.86002 -20.472736 -54.598083
28330000000 -24.5529 -155.44676 -1.1278999 159.75826 -1.1352626 159.77979 -20.439363 -54.457909
28340000000 -24.566505 -155.96492 -1.1298013 159.68929 -1.134076 159.70079 -20.421856 -54.364948
28350000000 -24.631458 -156.58368 -1.1278508 159.59566 -1.1345906 159.63181 -20.414484 -54.257854
28360000000 -24.624718 -156.99449 -1.1282465 159.55888 -1.1335081 159.54475 -20.38764 -53.619312
28370000000 -24.660666 -157.35509 -1.1276481 159.4662 -1.1349645 159.47913 -20.355011 -53.396751
28380000000 -24.662199 -157.72308 -1.1263028 159.38898 -1.1336062 159.40248 -20.342684 -52.698082
28390000000 -24.680952 -158.44588 -1.1268753 159.31366 -1.1324929 159.33205 -20.352409 -52.316505
28400000000 -24.730717 -158.46004 -1.126636 159.244 -1.1320589 159.25545 -20.437716 -51.698818
28410000000 -24.72974 -158.94267 -1.1263992 159.17419 -1.1354347 159.18642 -20.541225 -51.285034
28420000000 -24.768026 -159.60542 -1.1275283 159.10513 -1.1334277 159.11996 -20.605297 -51.331249
28430000000 -24.835215 -159.97733 -1.1253139 159.05199 -1.1290814 159.06053 -20.692076 -51.271919
28440000000 -24.879606 -159.93315 -1.1252009 158.98607 -1.1302948 158.98666 -20.794596 -51.417976
28450000000 -24.797831 -160.78658 -1.128547 158.90869 -1.1298516 158.91168 -20.83379 -51.882149
28460000000 -24.823339 -160.96101 -1.1246536 158.83409 -1.1315953 158.84804 -20.853426 -52.126221
28470000000 -24.771955 -161.2309 -1.1257268 158.7341 -1.1311713 158.75337 -20.823095 -53.017895
28480000000 -24.69706 -161.80283 -1.1252062 158.67636 -1.1269119 158.69673 -20.747719 -53.17123
28490000000 -24.629755 -162.20683 -1.1251097 158.60164 -1.1308721 158.60957 -20.681923 -53.498238
28500000000 -24.537407 -162.35533 -1.1275105 158.51982 -1.1315701 158.53578 -20.563211 -53.657787
28510000000 -24.456923 -162.45615 -1.1269226 158.45001 -1.1351634 158.46088 -20.506531 -53.730358
28520000000 -24.429264 -162.49057 -1.1243162 158.37303 -1.1313092 158.38737 -20.408138 -53.002254
28530000000 -24.427034 -162.30252 -1.1256856 158.29028 -1.1333417 158.29855 -20.399107 -52.609558
28540000000 -24.415476 -162.44606 -1.1251067 158.22751 -1.1319144 158.21968 -20.36771 -52.012436
28550000000 -24.430346 -162.4527 -1.1287135 158.13004 -1.1296209 158.16757 -20.381105 -51.298466
28560000000 -24.447527 -162.41414 -1.1286802 158.06601 -1.1304181 158.08879 -20.395647 -50.993885
28570000000 -24.542503 -162.39297 -1.124956 158.00304 -1.1295893 157.9915 -20.486092 -50.713051
28580000000 -24.592026 -162.47849 -1.1248702 157.94557 -1.1300296 157.93755 -20.535231 -50.427696
28590000000 -24.593281 -162.58525 -1.1227025 157.83672 -1.1278284 157.87305 -20.60803 -50.304733
28600000000 -24.629913 -162.63077 -1.1251835 157.75392 -1.1276035 157.79059 -20.678768 -50.699371
28610000000 -24.693386 -163.17717 -1.1245931 157.70184 -1.1277925 157.71025 -20.682407 -51.037186
28620000000 -24.704393 -163.46379 -1.1236737 157.62975 -1.1296586 157.6353 -20.696539 -51.189079
28630000000 -24.671141 -163.98285 -1.1249617 157.53452 -1.1297381 157.58205 -20.68825 -51.299339
28640000000 -24.69348 -164.07745 -1.1224574 157.48212 -1.1291867 157.49115 -20.643801 -51.389164
28650000000 -24.707882 -163.9512 -1.1222855 157.39011 -1.1275246 157.41251 -20.590837 -51.327675
28660000000 -24.705688 -164.033 -1.1212049 157.31076 -1.1270572 157.31363 -20.55316 -50.973957
28670000000 -24.680374 -164.28293 -1.1240817 157.24445 -1.1285791 157.25163 -20.522943 -50.232071
28680000000 -24.748808 -164.77599 -1.123837 157.18602 -1.129715 157.18138 -20.53611 -49.535721
28690000000 -24.85252 -164.75748 -1.1237545 157.10445 -1.127134 157.1069 -20.609777 -49.298389
28700000000 -24.924028 -164.47923 -1.1203049 157.03712 -1.1278108 157.02699 -20.687843 -48.423851
28710000000 -24.967625 -165.4631 -1.1206819 156.95612 -1.1271689 156.95743 -20.746399 -48.253246
28720000000 -25.070642 -165.74974 -1.1197461 156.88814 -1.125381 156.88953 -20.883209 -48.283741
28730000000 -25.139011 -166.39163 -1.1196439 156.80476 -1.1259872 156.81804 -20.978939 -48.459759
28740000000 -25.131609 -166.61613 -1.1200781 156.72853 -1.1261261 156.74591 -21.074326 -48.778442
28750000000 -25.090141 -167.28506 -1.1202348 156.67191 -1.1263026 156.67488 -21.114195 -49.144482
28760000000 -25.018566 -167.56471 -1.1182882 156.59448 -1.1239613 156.59149 -21.088264 -49.607601
28770000000 -25.000814 -167.97127 -1.1214994 156.52341 -1.1255021 156.55473 -21.083242 -50.01144
28780000000 -24.900148 -168.03769 -1.1212478 156.46484 -1.1271232 156.45061 -21.015999 -50.326153
28790000000 -24.854862 -168.01921 -1.1194007 156.37616 -1.1270162 156.39214 -20.957975 -50.529263
28800000000 -24.822426 -168.24278 -1.120329 156.32555 -1.1242893 156.30008 -20.861801 -50.405426
28810000000 -24.828674 -168.00536 -1.1197739 156.24265 -1.1250479 156.24451 -20.849445 -50.135532
28820000000 -24.834627 -168.25429 -1.1179934 156.1665 -1.1254501 156.17848 -20.753798 -49.387104
28830000000 -24.87396 -167.92906 -1.1193076 156.09698 -1.1256216 156.09793 -20.776682 -48.813858
28840000000 -24.914631 -168.48833 -1.1218916 156.02649 -1.1255356 156.02814 -20.832857 -48.610416
28850000000 -24.910454 -168.35785 -1.1200292 155.92149 -1.1271517 155.95598 -20.872494 -47.94455
28860000000 -24.968565 -168.76462 -1.1184636 155.86787 -1.1267059 155.89091 -20.995718 -47.645004
28870000000 -24.973879 -169.21997 -1.1180376 155.77829 -1.1249094 155.8008 -21.056482 -47.886318
28880000000 -24.98102 -169.60297 -1.1176479 155.7204 -1.1216058 155.7473 -21.182528 -48.183949
28890000000 -24.910334 -169.92249 -1.119851 155.65651 -1.1257745 155.65546 -21.228065 -48.51635
28900000000 -24.923246 -169.90894 -1.1166686 155.57954 -1.1218648 155.58788 -21.286739 -49.344902
28910000000 -24.86692 -169.64694 -1.1156132 155.50536 -1.1238725 155.53259 -21.276583 -50.034222
28920000000 -24.793882 -169.89882 -1.1166763 155.43033 -1.1207924 155.4601 -21.22563 -50.653446
28930000000 -24.728905 -169.36359 -1.1147274 155.36998 -1.1229404 155.38762 -21.129723 -50.96455
28940000000 -24.7222 -169.2357 -1.1196151 155.30672 -1.1248393 155.32149 -21.045683 -51.278088
28950000000 -24.722057 -168.633 -1.1213232 155.22066 -1.123606 155.23535 -20.959827 -51.08736
28960000000 -24.778658 -168.88858 -1.1209761 155.14732 -1.1277435 155.15359 -20.847843 -50.829739
28970000000 -24.842289 -168.44911 -1.1209106 155.0706 -1.1253062 155.09694 -20.83486 -50.110069
28980000000 -24.88246 -168.78275 -1.1206064 155.00571 -1.1233994 155.00601 -20.796757 -49.247696
28990000000 -24.927389 -169.07175 -1.1193652 154.9165 -1.1257621 154.93385 -20.79137 -48.456833
29000000000 -25.050577 -169.58771 -1.1189452 154.84251 -1.1260382 154.8495 -20.843384 -48.071861
29010000000 -25.102812 -170.14627 -1.1179335 154.75345 -1.1251556 154.77164 -20.927008 -47.451344
29020000000 -25.084171 -170.90569 -1.1184994 154.68951 -1.1227202 154.70963 -20.985079 -46.927315
29030000000 -25.107368 -171.41406 -1.1192657 154.62814 -1.1247472 154.61476 -21.121389 -47.04071
29040000000 -25.012903 -171.84233 -1.1147953 154.54546 -1.1217877 154.54268 -21.187201 -47.065502
29050000000 -25.008738 -171.81122 -1.1171995 154.46109 -1.1222891 154.44995 -21.249983 -47.394447
29060000000 -24.959246 -171.51788 -1.1162996 154.39771 -1.1228013 154.39616 -21.298794 -47.960781
29070000000 -24.915819 -171.47749 -1.1154773 154.32356 -1.1197779 154.33289 -21.349859 -48.302021
29080000000 -24.956324 -171.04898 -1.1121892 154.25179 -1.1219118 154.26292 -21.309029 -48.881134
29090000000 -24.91349 -170.53 -1.1170037 154.18555 -1.1211858 154.20001 -21.279222 -48.990715
29100000000 -24.982519 -170.31723 -1.1162385 154.11081 -1.1224594 154.13966 -21.219315 -49.077595
29110000000 -24.977489 -170.26912 -1.1206501 154.02863 -1.1265713 154.0453 -21.174276 -48.863216
29120000000 -25.071667 -170.4747 -1.1171577 153.95967 -1.1244751 153.95134 -21.145338 -48.541454
29130000000 -25.203571 -170.45039 -1.1191146 153.87175 -1.1246451 153.89684 -21.158035 -48.251476
29140000000 -25.227827 -171.46997 -1.1164731 153.80933 -1.1262969 153.80826 -21.174974 -47.524853
29150000000 -25.32506 -171.9523 -1.1196171 153.71875 -1.1238182 153.7256 -21.20092 -47.280857
29160000000 -25.32135 -171.85858 -1.1184646 153.6232 -1.1210063 153.65958 -21.315577 -47.01709
29170000000 -25.34794 -172.87485 -1.1168993 153.56894 -1.1230005 153.58737 -21.404839 -46.899666
29180000000 -25.232389 -173.08043 -1.115324 153.50232 -1.120116 153.50876 -21.496067 -46.80164
29190000000 -25.182718 -173.05302 -1.1165862 153.41367 -1.1211824 153.43727 -21.599781 -47.311623
29200000000 -25.09239 -172.85332 -1.1129357 153.36615 -1.1201404 153.35788 -21.648603 -47.821609
29210000000 -24.99806 -172.30409 -1.1122125 153.30031 -1.1185734 153.30647 -21.703012 -48.624378
29220000000 -24.955399 -171.59016 -1.1136404 153.20998 -1.1190932 153.23932 -21.691391 -49.008614
29230000000 -24.917654 -170.96252 -1.1142573 153.15324 -1.1179706 153.15871 -21.652233 -49.711967
29240000000 -24.952835 -170.5237 -1.1157688 153.08728 -1.1195592 153.10696 -21.650099 -50.095406
29250000000 -24.972321 -169.75963 -1.1147414 153.01865 -1.1217753 153.02632 -21.585918 -50.562984
29260000000 -25.082554 -169.38007 -1.1164935 152.9451 -1.120119 152.91559 -21.507927 -50.304768
29270000000 -25.143742 -170.08914 -1.1150888 152.86305 -1.1218396 152.86464 -21.489618 -50.025051
29280000000 -25.220791 -170.15663 -1.1165088 152.78815 -1.1210648 152.7955 -21.454605 -49.726402
29290000000 -25.264929 -170.72513 -1.1156862 152.68845 -1.1223658 152.70293 -21.459345 -49.239235
29300000000 -25.334755 -171.10069 -1.1146594 152.61011 -1.1199079 152.6244 -21.504089 -48.552475
29310000000 -25.276497 -171.55592 -1.115159 152.54651 -1.1188453 152.56738 -21.573244 -48.322361
29320000000 -25.278765 -171.82455 -1.1134371 152.46539 -1.1181053 152.47327 -21.625824 -48.100418
29330000000 -25.217024 -171.75548 -1.1141944 152.38884 -1.1191475 152.38814 -21.777109 -47.917606
29340000000 -25.157963 -171.69627 -1.1155097 152.31065 -1.1180929 152.33154 -21.867058 -48.156792
29350000000 -25.111687 -171.28986 -1.1123098 152.2296 -1.1174861 152.23657 -21.941805 -48.673874
29360000000 -25.105162 -170.6246 -1.1127684 152.18025 -1.1166629 152.19051 -21.973198 -49.229057
29370000000 -25.11454 -169.97322 -1.1121058 152.09518 -1.1163985 152.11925 -22.060373 -50.10099
29380000000 -25.192642 -169.19287 -1.1115243 152.02426 -1.1168818 152.02989 -22.031603 -50.882103
29390000000 -25.228308 -168.35857 -1.1141797 151.95729 -1.1143533 151.96931 -22.015583 -51.284496
29400000000 -25.287649 -168.0584 -1.1112398 151.88847 -1.1186284 151.89665 -21.913822 -51.703766
29410000000 -25.392397 -168.13031 -1.1124276 151.8145 -1.1200807 151.82533 -21.869852 -52.042782
29420000000 -25.446301 -167.88573 -1.1138682 151.73514 -1.1191442 151.74625 -21.818804 -51.850014
29430000000 -25.498634 -168.43359 -1.1142901 151.65515 -1.1210825 151.66493 -21.756626 -51.742146
29440000000 -25.486359 -169.19928 -1.1150262 151.58626 -1.1211356 151.58371 -21.724398 -51.565384
29450000000 -25.504875 -169.70786 -1.1151912 151.49701 -1.1199605 151.51433 -21.750654 -51.009083
29460000000 -25.458351 -170.05222 -1.1139766 151.4454 -1.1166238 151.43805 -21.805906 -50.780552
29470000000 -25.345758 -170.49036 -1.1149329 151.36949 -1.1203092 151.35318 -21.834654 -50.47773
29480000000 -25.269707 -170.38834 -1.1170204 151.27708 -1.1204486 151.28125 -21.906868 -50.519413
29490000000 -25.19495 -170.11072 -1.1149794 151.19772 -1.1202979 151.19968 -21.970556 -50.371964
29500000000 -25.096333 -169.92271 -1.112553 151.12431 -1.1187456 151.15376 -22.014429 -50.602245
29510000000 -25.125727 -169.07779 -1.1130062 151.06131 -1.117764 151.0607 -22.12874 -50.973637
29520000000 -25.106953 -168.56985 -1.1156882 151.0007 -1.1177932 151.01044 -22.145632 -51.550194
29530000000 -25.15938 -167.99031 -1.1153281 150.92226 -1.1190541 150.91991 -22.129652 -51.892731
29540000000 -25.216585 -167.61676 -1.1125915 150.85159 -1.1170044 150.8586 -22.14617 -52.036575
29550000000 -25.28021 -167.11285 -1.1142935 150.77364 -1.1177912 150.78603 -22.150066 -51.986374
29560000000 -25.378326 -166.87079 -1.1157608 150.7084 -1.1183494 150.70105 -22.152323 -52.116463
29570000000 -25.546099 -167.24977 -1.1131306 150.6255 -1.1192677 150.63889 -22.091961 -52.004246
29580000000 -25.633686 -167.58536 -1.1147351 150.55376 -1.1201169 150.543 -22.141855 -51.634651
29590000000 -25.638136 -167.7594 -1.1154151 150.467 -1.1197246 150.48865 -22.159264 -51.350986
29600000000 -25.603191 -168.0871 -1.1132343 150.40826 -1.1194459 150.40887 -22.203934 -50.895271
29610000000 -25.636303 -168.45529 -1.1152645 150.30777 -1.1193099 150.3271 -22.299831 -50.870174
29620000000 -25.54635 -168.38556 -1.1146936 150.23994 -1.1178725 150.2533 -22.403711 -50.775223
29630000000 -25.514568 -168.30971 -1.1121922 150.14897 -1.1195753 150.15648 -22.477636 -50.919983
29640000000 -25.49445 -167.8244 -1.1140779 150.0634 -1.1178297 150.06564 -22.64469 -51.433838
29650000000 -25.468857 -167.26747 -1.110829 149.98624 -1.1182158 150.00432 -22.757811 -51.948441
29660000000 -25.454973 -166.93967 -1.1134169 149.90297 -1.1202121 149.92709 -22.872169 -52.811253
29670000000 -25.405563 -166.18515 -1.1137829 149.83119 -1.1210914 149.8533 -22.895874 -53.667454
29680000000 -25.429619 -165.88173 -1.1129072 149.74924 -1.1186197 149.76891 -22.896864 -54.502857
29690000000 -25.463997 -165.35077 -1.1101975 149.6814 -1.1180664 149.70509 -22.888628 -55.589088
29700000000 -25.486849 -165.49861 -1.1119554 149.62813 -1.1176438 149.64305 -22.847961 -56.58593
29710000000 -25.424326 -165.181 -1.1127373 149.54109 -1.1177366 149.54985 -22.746616 -57.264999
29720000000 -25.457901 -165.31709 -1.1079845 149.4865 -1.1156175 149.48366 -22.720779 -57.60033
29730000000 -25.363043 -165.32626 -1.1097714 149.41689 -1.1136167 149.42165 -22.641191 -57.988171
29740000000 -25.36367 -165.76361 -1.1162887 149.33134 -1.1165655 149.35442 -22.557573 -58.580154
29750000000 -25.238787 -165.55949 -1.1097152 149.26917 -1.1167573 149.29358 -22.502464 -58.33466
29760000000 -25.16666 -165.87373 -1.1099502 149.21112 -1.1164727 149.23758 -22.438074 -58.183868
29770000000 -25.056612 -165.57545 -1.1104234 149.13858 -1.1184489 149.13524 -22.386358 -58.235668
29780000000 -24.976309 -165.49637 -1.1162163 149.06161 -1.117664 149.06479 -22.336882 -58.050873
29790000000 -24.928644 -165.24966 -1.1128316 148.99423 -1.1165373 148.98978 -22.317244 -58.115936
29800000000 -24.935083 -164.90927 -1.1135708 148.91405 -1.1177801 148.90787 -22.303577 -58.120449
29810000000 -24.876453 -164.317 -1.1119306 148.84645 -1.1161902 148.84673 -22.353012 -58.006733
29820000000 -24.878784 -164.04436 -1.1126366 148.75517 -1.1157953 148.76044 -22.329159 -58.099098
29830000000 -24.811687 -163.55823 -1.1123109 148.68309 -1.1176716 148.69327 -22.368917 -57.984112
29840000000 -24.904978 -163.06473 -1.1121092 148.59868 -1.1198797 148.61775 -22.344662 -58.193287
29850000000 -24.853359 -163.02946 -1.1109152 148.55826 -1.1168654 148.55269 -22.346867 -58.287975
29860000000 -24.81815 -162.69138 -1.1124456 148.46021 -1.1169096 148.48923 -22.336502 -58.350998
29870000000 -24.810637 -162.28136 -1.1145457 148.38974 -1.1211034 148.40273 -22.409401 -58.160912
29880000000 -24.79133 -161.5596 -1.1119524 148.30147 -1.1187851 148.33246 -22.454809 -58.056854
29890000000 -24.81498 -160.50395 -1.1131811 148.25874 -1.1201123 148.23592 -22.600267 -58.308784
29900000000 -24.847464 -160.33075 -1.1141442 148.17386 -1.1213245 148.19131 -22.618038 -58.405968
29910000000 -24.856806 -159.81068 -1.1124439 148.1041 -1.1190463 148.09607 -22.709463 -58.794563
29920000000 -24.958897 -159.00912 -1.1160483 148.02359 -1.1192111 148.02394 -22.788658 -59.087318
29930000000 -25.031166 -158.78198 -1.1171587 147.93884 -1.1193773 147.93384 -22.854794 -59.702301
29940000000 -25.049677 -158.51198 -1.1161681 147.86366 -1.1198975 147.8551 -22.905561 -59.816032
29950000000 -25.168015 -157.87662 -1.1143637 147.80235 -1.1202115 147.8031 -22.921246 -60.309593
29960000000 -25.232908 -157.78903 -1.1124313 147.7178 -1.121285 147.72058 -22.935219 -60.499043
29970000000 -25.313934 -157.83986 -1.1126647 147.62614 -1.1185875 147.63246 -22.948015 -61.066917
29980000000 -25.369282 -157.85818 -1.1101192 147.56921 -1.1167365 147.5732 -22.969442 -61.234886
29990000000 -25.414164 -158.73761 -1.1110466 147.48695 -1.1178066 147.5265 -22.966761 -61.831799
30000000000 -25.368601 -158.77359 -1.1124604 147.41159 -1.1156986 147.43321 -22.957891 -61.922241
30010000000 -25.365597 -158.7576 -1.1132132 147.34081 -1.1186926 147.34814 -22.992283 -62.316933
30020000000 -25.332939 -158.54593 -1.1134464 147.25621 -1.1182044 147.27013 -23.025118 -62.47467
30030000000 -25.247597 -158.58038 -1.1115762 147.18854 -1.1193408 147.1855 -23.038628 -62.672874
30040000000 -25.199362 -158.36763 -1.1151955 147.125 -1.1192396 147.11584 -23.086403 -63.302467
30050000000 -25.106785 -158.77959 -1.1145962 147.03363 -1.1201991 147.03795 -23.073242 -63.776447
30060000000 -25.078833 -158.23743 -1.1166579 146.94731 -1.1204526 146.95369 -23.053642 -64.515038
30070000000 -25.021076 -158.02802 -1.113898 146.86327 -1.1202992 146.86578 -23.091682 -65.298103
30080000000 -25.007654 -158.00087 -1.1126082 146.79343 -1.1193391 146.79657 -23.071196 -65.834442
30090000000 -24.965776 -157.44034 -1.1126189 146.70801 -1.1157591 146.73073 -23.005339 -66.331223
30100000000 -24.929836 -157.49834 -1.110626 146.64128 -1.1159037 146.65656 -22.948204 -67.203987
30110000000 -24.843994 -157.46156 -1.1115806 146.5802 -1.1167917 146.57545 -22.83955 -67.222893
30120000000 -24.755037 -157.17816 -1.1127881 146.5094 -1.1184927 146.52542 -22.77216 -67.034691
30130000000 -24.74538 -156.90273 -1.1120801 146.42546 -1.1169752 146.45187 -22.738327 -67.067696
30140000000 -24.691574 -156.57326 -1.1144618 146.37477 -1.1174617 146.40773 -22.690313 -66.65731
30150000000 -24.682364 -156.23198 -1.1132467 146.30255 -1.1203303 146.30243 -22.65567 -66.481415
30160000000 -24.641443 -155.75583 -1.1143316 146.24936 -1.1202255 146.23755 -22.729305 -66.222336
30170000000 -24.641159 -155.2388 -1.1144012 146.14365 -1.1201726 146.14078 -22.772387 -66.245026
30180000000 -24.658768 -154.80783 -1.1161859 146.08185 -1.1197826 146.08855 -22.82699 -66.483513
30190000000 -24.708725 -154.49428 -1.1158769 146.00262 -1.1178267 146.00566 -22.866079 -66.847168
30200000000 -24.735081 -154.15111 -1.1143881 145.93115 -1.1191009 145.92484 -22.97644 -67.510887
30210000000 -24.72019 -153.68286 -1.1109062 145.87617 -1.1189921 145.85785 -22.952969 -67.917702
30220000000 -24.788782 -153.17134 -1.1116638 145.78275 -1.1176271 145.78098 -22.947241 -68.581032
30230000000 -24.842299 -153.25055 -1.1118969 145.70628 -1.1179271 145.70163 -22.862692 -69.281609
30240000000 -24.779545 -153.43109 -1.1142285 145.62003 -1.1168665 145.63693 -22.764286 -69.816048
30250000000 -24.848043 -153.08971 -1.1142296 145.5558 -1.1173452 145.57048 -22.719931 -70.191475
30260000000 -24.812199 -152.92188 -1.1101972 145.46825 -1.1148502 145.49556 -22.601412 -69.908157
30270000000 -24.868294 -153.25783 -1.115067 145.40796 -1.1171055 145.41824 -22.524567 -69.945549
30280000000 -24.793516 -153.67067 -1.112869 145.33876 -1.1183628 145.37683 -22.482851 -69.481758
30290000000 -24.771702 -153.69586 -1.1109917 145.2704 -1.1197267 145.28973 -22.483854 -69.035049
30300000000 -24.740839 -153.97594 -1.1181046 145.20241 -1.1184777 145.21057 -22.520365 -68.909859
30310000000 -24.658463 -153.5652 -1.1143798 145.11087 -1.1205368 145.12869 -22.620771 -68.456612
30320000000 -24.607904 -153.54309 -1.1159804 145.03552 -1.1208407 145.04411 -22.693464 -68.441566
30330000000 -24.625092 -153.28203 -1.1145694 144.97365 -1.1213973 144.96375 -22.809519 -68.901398
30340000000 -24.544317 -153.20341 -1.1134591 144.89795 -1.1197217 144.90065 -22.902395 -69.301743
30350000000 -24.5567 -152.37158 -1.1132915 144.79807 -1.1184422 144.81299 -22.973763 -70.101364
30360000000 -24.553537 -152.07811 -1.1110734 144.71916 -1.1151203 144.73682 -22.966091 -70.957352
30370000000 -24.509129 -151.62123 -1.1141596 144.64398 -1.1170676 144.64664 -22.99003 -71.628319
30380000000 -24.543146 -151.64238 -1.1130463 144.57527 -1.118544 144.57074 -22.888947 -73.048492
30390000000 -24.553007 -150.84169 -1.1125426 144.50746 -1.1142513 144.50516 -22.823488 -73.329552
30400000000 -24.522541 -151.02107 -1.1158147 144.42648 -1.1159476 144.4375 -22.701609 -73.954529
30410000000 -24.542334 -150.49956 -1.114442 144.32883 -1.1199045 144.35455 -22.70743 -74.15757
30420000000 -24.465687 -150.51276 -1.1134821 144.26758 -1.1204121 144.27176 -22.542538 -74.030396
30430000000 -24.4687 -150.37067 -1.1144892 144.20995 -1.1220056 144.192 -22.512835 -73.599258
30440000000 -24.406448 -150.32104 -1.116152 144.11736 -1.1213038 144.12164 -22.527407 -73.533432
30450000000 -24.374437 -150.4343 -1.1171463 144.03494 -1.122507 144.05632 -22.468149 -73.845177
30460000000 -24.34791 -150.16296 -1.1168089 143.9623 -1.1201525 143.96895 -22.489933 -73.857872
30470000000 -24.325563 -150.32106 -1.1171684 143.88057 -1.1219858 143.91411 -22.508871 -74.241524
30480000000 -24.214508 -149.84053 -1.1226873 143.82764 -1.123897 143.81367 -22.557884 -74.657356
30490000000 -24.167326 -149.8577 -1.1205783 143.73695 -1.1238037 143.75587 -22.530113 -75.069031
30500000000 -24.066147 -149.53325 -1.1196271 143.65721 -1.126259 143.67152 -22.451689 -75.477226
30510000000 -24.061117 -149.118 -1.1168061 143.60825 -1.1239409 143.60403 -22.473938 -76.132683
30520000000 -24.087299 -148.4512 -1.1204081 143.53065 -1.1255162 143.50133 -22.407084 -76.475868
30530000000 -24.100031 -147.73172 -1.120646 143.42844 -1.1243175 143.44115 -22.297447 -76.421867
30540000000 -24.172602 -147.83006 -1.1185868 143.37926 -1.1224544 143.38603 -22.240545 -76.616257
30550000000 -24.233974 -147.57614 -1.1192973 143.32593 -1.122556 143.30249 -22.175505 -76.402496
30560000000 -24.243689 -147.67569 -1.1193304 143.23842 -1.1229589 143.25772 -22.146996 -75.696342
30570000000 -24.343901 -148.18362 -1.1196252 143.19186 -1.1231972 143.1788 -22.066881 -75.371185
30580000000 -24.387518 -148.08391 -1.120319 143.10316 -1.1227534 143.10033 -22.092972 -74.723404
30590000000 -24.375185 -148.5345 -1.1219405 143.05611 -1.124838 143.03812 -22.16395 -74.361473
30600000000 -24.406425 -148.87975 -1.1207894 142.96196 -1.1244302 142.97133 -22.176291 -73.746674
30610000000 -24.427145 -149.54428 -1.1196198 142.88594 -1.124347 142.89818 -22.228275 -73.794052
30620000000 -24.372229 -149.86026 -1.1203468 142.82166 -1.1264328 142.82228 -22.260973 -73.750977
30630000000 -24.352341 -149.62384 -1.1206765 142.75243 -1.1260839 142.75957 -22.203123 -73.74366
30640000000 -24.299679 -149.74728 -1.1239963 142.6702 -1.1253612 142.69118 -22.264099 -74.543419
30650000000 -24.222017 -149.63889 -1.1190162 142.59616 -1.1258738 142.60701 -22.249344 -74.418671
30660000000 -24.185474 -149.34282 -1.1197792 142.52632 -1.1239271 142.53163 -22.234531 -74.703224
30670000000 -24.15204 -148.5853 -1.119601 142.44696 -1.125374 142.4438 -22.20318 -75.168785
30680000000 -24.12133 -147.99535 -1.1203601 142.33408 -1.124565 142.35687 -22.162252 -75.15847
30690000000 -24.102549 -147.46321 -1.1221449 142.28825 -1.1256652 142.29446 -22.126896 -75.224968
30700000000 -24.119776 -147.3602 -1.1204576 142.20145 -1.1258426 142.20207 -22.075684 -74.939957
30710000000 -24.143425 -146.44402 -1.1202067 142.11522 -1.1253679 142.13284 -22.101074 -74.722549
30720000000 -24.186647 -146.19237 -1.1209985 142.06804 -1.1261998 142.06451 -22.099415 -74.463371
30730000000 -24.315107 -146.51614 -1.1198155 142.00481 -1.1230253 142.0166 -22.139175 -74.474403
30740000000 -24.39032 -146.08202 -1.1163067 141.91805 -1.1217281 141.9399 -22.153067 -74.356087
30750000000 -24.42345 -146.20088 -1.1227778 141.84976 -1.1249667 141.88232 -22.197472 -74.247452
30760000000 -24.424164 -146.20464 -1.1242253 141.78084 -1.123726 141.79947 -22.249783 -74.111488
30770000000 -24.517879 -146.33189 -1.12059 141.71542 -1.1261486 141.73448 -22.278492 -74.221878
30780000000 -24.494505 -146.13663 -1.1213946 141.62236 -1.1261717 141.63321 -22.305458 -74.398392
30790000000 -24.553263 -146.10384 -1.1219425 141.56126 -1.126124 141.55815 -22.29661 -74.482719
30800000000 -24.493635 -146.28917 -1.1220772 141.48889 -1.1286538 141.48471 -22.303816 -74.522156
30810000000 -24.492973 -146.17253 -1.1223253 141.4093 -1.1255896 141.42046 -22.286808 -74.822998
30820000000 -24.502083 -146.03194 -1.1200104 141.32564 -1.1268817 141.33875 -22.294645 -74.978951
30830000000 -24.440996 -145.77928 -1.1246431 141.22792 -1.1296723 141.25111 -22.278782 -75.147209
30840000000 -24.478428 -145.74208 -1.122916 141.16954 -1.1266958 141.18163 -22.254002 -75.16993
30850000000 -24.469429 -145.39774 -1.1246516 141.09065 -1.1277086 141.08939 -22.225773 -75.720306
30860000000 -24.430836 -145.55231 -1.1245657 141.02505 -1.1280395 141.03253 -22.218306 -75.475616
30870000000 -24.468552 -145.46701 -1.1245388 140.9424 -1.1283442 140.95525 -22.22736 -75.825699
30880000000 -24.486675 -145.32986 -1.126171 140.86618 -1.1300383 140.85884 -22.197403 -75.804489
30890000000 -24.582457 -145.23148 -1.125062 140.79199 -1.128309 140.79922 -22.20463 -75.659462
30900000000 -24.537086 -145.29672 -1.1230292 140.72415 -1.1312715 140.71959 -22.161457 -75.613899
30910000000 -24.58045 -145.23836 -1.1252935 140.64658 -1.130453 140.65196 -22.109079 -75.389023
30920000000 -24.691885 -145.40717 -1.1233096 140.59033 -1.128558 140.59148 -22.144936 -75.167412
30930000000 -24.752716 -145.99663 -1.1255805 140.51283 -1.1340723 140.50052 -22.104134 -75.097542
30940000000 -24.687277 -146.14799 -1.1271508 140.43314 -1.1327517 140.43117 -22.11845 -74.84082
30950000000 -24.731237 -146.33101 -1.1271763 140.37138 -1.1300238 140.38564 -22.128235 -74.847458
30960000000 -24.76664 -146.68262 -1.1278569 140.27853 -1.1314079 140.28227 -22.085245 -74.638702
30970000000 -24.76193 -147.02405 -1.1284382 140.22278 -1.1304231 140.22081 -22.081026 -74.421944
30980000000 -24.757446 -146.78592 -1.125373 140.11357 -1.1323713 140.11824 -22.068363 -74.198174
30990000000 -24.766153 -146.52136 -1.1288111 140.0804 -1.1295716 140.07161 -22.136492 -74.23658
31000000000 -24.739363 -146.82253 -1.128024 139.99471 -1.131212 139.98982 -22.107546 -74.197174
31010000000 -24.79073 -146.18875 -1.1258812 139.91736 -1.1304349 139.92348 -22.098589 -74.320663
31020000000 -24.783657 -146.15387 -1.1232995 139.8499 -1.1328071 139.86624 -22.08256 -74.1614
31030000000 -24.845808 -145.78203 -1.1251945 139.76131 -1.129961 139.7836 -22.120731 -74.019051
31040000000 -24.860847 -145.63342 -1.1268367 139.67906 -1.1303399 139.68019 -22.06588 -74.31514
31050000000 -24.897327 -145.2132 -1.129024 139.60562 -1.1335346 139.62151 -22.110884 -74.264122
31060000000 -24.972218 -145.70558 -1.1273619 139.54208 -1.133054 139.55055 -22.064285 -73.682442
31070000000 -25.089996 -145.41264 -1.125963 139.4422 -1.1304339 139.47011 -22.017113 -73.359306
31080000000 -25.167936 -145.70934 -1.1240251 139.38939 -1.1286296 139.4043 -21.997669 -73.300392
31090000000 -25.217001 -145.91405 -1.1270736 139.34084 -1.1281408 139.31926 -22.019674 -73.03392
31100000000 -25.256186 -146.80956 -1.1288732 139.26546 -1.1298569 139.25148 -22.024035 -73.010185
31110000000 -25.224504 -146.80257 -1.1269675 139.16441 -1.1326891 139.16716 -22.022232 -72.625961
31120000000 -25.213295 -147.50484 -1.1284345 139.11009 -1.1304251 139.11868 -22.001709 -72.655273
31130000000 -25.188702 -147.30278 -1.1286557 139.02919 -1.1318297 139.0489 -22.035656 -72.242111
31140000000 -25.242844 -147.68423 -1.1261784 138.97025 -1.1339644 138.99898 -22.005102 -71.698906
31150000000 -25.134979 -146.83698 -1.1263241 138.88588 -1.1345469 138.89426 -22.013649 -71.388023
31160000000 -25.179888 -146.54497 -1.1296347 138.80476 -1.1333276 138.82735 -22.068281 -71.096642
31170000000 -25.202316 -146.02879 -1.128644 138.74655 -1.1345882 138.74832 -22.166443 -70.887543
31180000000 -25.266476 -145.63686 -1.1284168 138.6902 -1.1315213 138.69225 -22.180496 -70.336998
31190000000 -25.303984 -145.31606 -1.1270951 138.62015 -1.1327671 138.59784 -22.222008 -70.394028
31200000000 -25.457981 -144.43011 -1.1283804 138.53329 -1.1327815 138.53566 -22.217306 -70.26503
31210000000 -25.572363 -144.38086 -1.1261797 138.44571 -1.1303055 138.45917 -22.301579 -70.100288
31220000000 -25.668447 -144.22691 -1.1262542 138.37683 -1.1315618 138.38907 -22.300358 -70.382339
31230000000 -25.678984 -143.95601 -1.1301041 138.30664 -1.132127 138.2982 -22.398195 -70.756363
31240000000 -25.700459 -144.27365 -1.1272206 138.23322 -1.1333727 138.24498 -22.424793 -71.052299
31250000000 -25.729183 -144.38416 -1.1268387 138.16783 -1.1326414 138.1505 -22.405819 -71.112114
31260000000 -25.721045 -144.30736 -1.1252003 138.08025 -1.134151 138.0656 -22.338306 -71.582359
31270000000 -25.787157 -144.08855 -1.1254109 137.99802 -1.1338589 138.00449 -22.293915 -71.488129
31280000000 -25.815878 -144.01796 -1.1262361 137.90648 -1.1306679 137.9241 -22.29668 -71.52787
31290000000 -25.926718 -143.86998 -1.1259435 137.83284 -1.1332295 137.85139 -22.260859 -71.435593
31300000000 -25.903652 -143.93112 -1.1279508 137.77335 -1.130677 137.76291 -22.247314 -71.048782
31310000000 -25.97205 -144.02194 -1.1286427 137.66045 -1.1332012 137.68483 -22.207422 -70.678795
31320000000 -26.122534 -143.61781 -1.1270964 137.60297 -1.1314838 137.6179 -22.21446 -70.301056
31330000000 -26.240856 -143.49181 -1.1281146 137.54662 -1.1284351 137.5291 -22.268986 -69.406013
31340000000 -26.460112 -143.35477 -1.1253464 137.45636 -1.1324661 137.4774 -22.311474 -69.08036
31350000000 -26.492327 -144.25861 -1.1298878 137.39536 -1.1318902 137.4082 -22.340628 -68.779358
31360000000 -26.614241 -144.68874 -1.1247544 137.28726 -1.1295242 137.32985 -22.394884 -68.229126
31370000000 -26.771729 -145.83046 -1.1277744 137.25035 -1.135772 137.24602 -22.447939 -68.494102
31380000000 -26.926634 -146.28871 -1.1263334 137.20171 -1.1330621 137.18254 -22.47102 -68.542458
31390000000 -26.809864 -146.97766 -1.125857 137.09074 -1.134146 137.11295 -22.463652 -68.695
31400000000 -26.925985 -147.62025 -1.1289592 137.0269 -1.1332173 137.02733 -22.434151 -68.662346
31410000000 -26.876495 -148.0202 -1.1289941 136.96416 -1.1320636 136.94809 -22.335699 -68.60038
31420000000 -26.93734 -148.4691 -1.1309605 136.8759 -1.1334445 136.88086 -22.299093 -68.671799
31430000000 -26.77775 -148.38487 -1.132206 136.79132 -1.1332853 136.79323 -22.216978 -68.35463
31440000000 -26.810692 -148.34203 -1.1285248 136.72803 -1.135105 136.71649 -22.150164 -67.46489
31450000000 -26.849543 -148.35133 -1.1296653 136.64124 -1.1316937 136.65579 -22.110432 -66.77636
31460000000 -26.882582 -147.57497 -1.1274464 136.56023 -1.1324936 136.58154 -22.10742 -66.391075
31470000000 -26.979425 -147.35925 -1.127691 136.50284 -1.1345365 136.50648 -22.182133 -65.725296
31480000000 -27.055216 -147.40976 -1.1272656 136.44078 -1.133003 136.42853 -22.240816 -65.090553
31490000000 -27.075779 -146.83356 -1.128788 136.3689 -1.133134 136.37666 -22.315121 -64.926147
31500000000 -27.195795 -147.19119 -1.129859 136.27824 -1.1305219 136.26341 -22.397345 -64.534615
31510000000 -27.329048 -147.81233 -1.1311277 136.21333 -1.1339399 136.22801 -22.480057 -64.769066
31520000000 -27.287796 -147.6398 -1.1303715 136.13692 -1.1339164 136.15341 -22.536528 -64.864922
31530000000 -27.376623 -147.96979 -1.1313413 136.04997 -1.1349499 136.06874 -22.568886 -65.075905
31540000000 -27.37554 -148.47601 -1.1333801 135.99702 -1.1374602 135.98607 -22.568029 -65.797279
31550000000 -27.420515 -148.00067 -1.1313105 135.91318 -1.13484 135.87975 -22.486183 -65.795586
31560000000 -27.392687 -148.72495 -1.1324888 135.81429 -1.1364802 135.82272 -22.488247 -65.987778
31570000000 -27.414597 -148.77565 -1.1319729 135.73669 -1.136232 135.73163 -22.394196 -65.861572
31580000000 -27.418844 -148.34351 -1.1337376 135.66077 -1.1376816 135.6636 -22.293894 -65.284882
31590000000 -27.511164 -148.04128 -1.1332893 135.58824 -1.1368992 135.58893 -22.264498 -64.818428
31600000000 -27.572462 -148.12668 -1.1300114 135.50827 -1.1331841 135.51714 -22.222994 -64.01561
31610000000 -27.658056 -147.7011 -1.1312833 135.43016 -1.1367546 135.44321 -22.233322 -63.386822
31620000000 -27.707546 -147.78252 -1.1315845 135.36929 -1.1362948 135.35257 -22.306017 -62.415459
31630000000 -27.955149 -147.32144 -1.1283362 135.28693 -1.1394109 135.29889 -22.299503 -61.866039
31640000000 -28.007309 -147.2655 -1.1331931 135.21515 -1.1371989 135.22508 -22.414618 -61.637928
31650000000 -28.117872 -147.05644 -1.1275655 135.1414 -1.1359529 135.15216 -22.478458 -61.127457
31660000000 -28.190508 -146.4583 -1.1294597 135.07547 -1.135427 135.08353 -22.614347 -61.611427
31670000000 -28.279257 -146.54111 -1.1304739 134.99506 -1.1358728 134.99292 -22.635063 -61.561924
31680000000 -28.300865 -147.24924 -1.1307539 134.93021 -1.1365037 134.93317 -22.679098 -61.958046
31690000000 -28.447252 -146.50768 -1.1317952 134.84271 -1.137802 134.85733 -22.644014 -62.056202
31700000000 -28.415726 -147.16998 -1.1321893 134.76595 -1.1344763 134.75185 -22.541691 -62.312794
31710000000 -28.490883 -146.6209 -1.1331102 134.69789 -1.1360898 134.69621 -22.512377 -62.005859
31720000000 -28.571768 -147.09554 -1.132419 134.61464 -1.1374373 134.61356 -22.448338 -61.470058
31730000000 -28.730705 -146.38458 -1.1299812 134.52863 -1.1388921 134.53812 -22.362152 -60.930416
31740000000 -28.849798 -147.27481 -1.1312702 134.46855 -1.1352872 134.46121 -22.365805 -59.821857
31750000000 -29.046267 -147.35788 -1.1317095 134.38255 -1.1345003 134.38409 -22.354294 -59.029221
31760000000 -29.158445 -146.40335 -1.1323646 134.32121 -1.1374313 134.3046 -22.392673 -58.080967
31770000000 -29.273249 -146.75362 -1.1304284 134.23553 -1.135893 134.24092 -22.459927 -57.213371
31780000000 -29.456989 -146.59375 -1.1281593 134.15825 -1.1339262 134.15134 -22.589022 -56.664352
31790000000 -29.602011 -146.36942 -1.1303694 134.09964 -1.1360961 134.0854 -22.720123 -56.175381
31800000000 -29.695627 -146.85681 -1.1302216 134.02493 -1.1363006 134.0079 -22.879778 -56.121132
31810000000 -29.964907 -146.22401 -1.1299375 133.9642 -1.1341174 133.95726 -23.055243 -56.009563
31820000000 -30.011921 -146.27402 -1.1318039 133.88548 -1.1364479 133.86685 -23.080708 -56.475334
31830000000 -30.122936 -146.89746 -1.128359 133.8035 -1.1368353 133.80975 -23.128872 -57.108955
31840000000 -30.31793 -147.0527 -1.131158 133.73956 -1.1351339 133.73706 -23.053768 -57.760342
31850000000 -30.310837 -147.46426 -1.1344353 133.64899 -1.1375753 133.66069 -23.018648 -58.186859
31860000000 -30.446524 -147.56935 -1.1335588 133.56868 -1.1391565 133.59605 -22.949589 -58.313225
31870000000 -30.558733 -147.43982 -1.1330926 133.49506 -1.1359472 133.49016 -22.792887 -57.990108
31880000000 -30.704632 -147.97279 -1.131858 133.40454 -1.138237 133.4305 -22.717802 -57.665985
31890000000 -30.785824 -149.10515 -1.1339524 133.32343 -1.1404169 133.33055 -22.608032 -56.635498
31900000000 -30.785343 -148.65843 -1.1355932 133.24948 -1.1391925 133.2679 -22.516001 -55.798485
31910000000 -30.977667 -149.9312 -1.1350794 133.17017 -1.1363547 133.17375 -22.50712 -54.534431
31920000000 -31.160944 -149.705 -1.1331689 133.09239 -1.135543 133.12572 -22.553831 -53.450279
31930000000 -31.284601 -149.76074 -1.1319587 133.03392 -1.1370525 133.04672 -22.614735 -52.210243
31940000000 -31.394472 -150.26004 -1.1284403 132.97873 -1.136799 132.9669 -22.724258 -51.932575
31950000000 -31.645247 -149.67795 -1.1300765 132.91029 -1.1355051 132.90312 -22.818209 -51.172451
31960000000 -31.803719 -148.91617 -1.1297995 132.80823 -1.1371286 132.82617 -22.911034 -50.973808
31970000000 -31.919239 -147.77049 -1.1304953 132.75284 -1.1348518 132.75934 -22.953409 -50.829174
31980000000 -31.916439 -147.86978 -1.1330063 132.67719 -1.1376593 132.69272 -22.973804 -51.052444
31990000000 -32.225853 -147.00809 -1.1322564 132.60025 -1.1400039 132.59317 -23.032999 -51.272617
32000000000 -32.473232 -146.8224 -1.1326529 132.54379 -1.1377158 132.53687 -23.021498 -51.446514
32010000000 -32.648216 -146.57431 -1.1324855 132.44228 -1.1399742 132.45392 -22.961033 -51.183231
32020000000 -32.757236 -146.46141 -1.134908 132.36935 -1.1386094 132.38155 -22.928253 -50.949875
32030000000 -32.981724 -147.13315 -1.1338431 132.2915 -1.1415375 132.30975 -22.886574 -50.650688
32040000000 -33.339161 -148.10257 -1.1338364 132.22018 -1.1383042 132.20102 -22.868391 -49.571285
32050000000 -33.499424 -147.25685 -1.1328 132.13002 -1.1357925 132.12714 -22.83732 -48.77599
32060000000 -33.755646 -148.88786 -1.1341765 132.05006 -1.1370902 132.07945 -22.894884 -48.094711
32070000000 -34.056786 -146.92882 -1.1333202 131.98938 -1.136693 131.9749 -22.926115 -47.125439
32080000000 -34.225243 -148.14629 -1.1308694 131.8994 -1.1353437 131.90874 -23.013218 -46.492462
32090000000 -34.571781 -149.03873 -1.1293792 131.85858 -1.1361214 131.84998 -23.128252 -45.880054
32100000000 -34.913033 -149.11713 -1.1305914 131.78143 -1.1360322 131.76303 -23.252836 -45.331055
32110000000 -35.047237 -149.71036 -1.1321099 131.71367 -1.1370128 131.70667 -23.339033 -45.627335
32120000000 -35.264046 -149.17868 -1.1321973 131.63268 -1.1372759 131.63826 -23.428835 -46.004684
32130000000 -35.32317 -151.30287 -1.1322715 131.56895 -1.1403364 131.56688 -23.517702 -46.377525
32140000000 -35.522209 -152.13809 -1.1314912 131.48605 -1.1395838 131.51331 -23.523735 -46.542622
32150000000 -35.667282 -153.41121 -1.1338035 131.39819 -1.1389604 131.42146 -23.502054 -46.97612
32160000000 -35.622715 -154.21193 -1.1338925 131.32739 -1.1404414 131.33272 -23.435545 -47.534546
32170000000 -35.660358 -154.11742 -1.1345319 131.26434 -1.1378655 131.26691 -23.356474 -47.297943
32180000000 -35.654449 -155.22189 -1.134758 131.16376 -1.1394701 131.16504 -23.198242 -47.4655
32190000000 -35.712303 -155.61917 -1.1374615 131.0843 -1.14091 131.09578 -23.173986 -46.71957
32200000000 -35.651478 -156.28749 -1.1324533 131.01846 -1.138684 131.04256 -23.067083 -46.287621
32210000000 -35.857586 -155.2287 -1.1361274 130.92415 -1.1385738 130.94102 -23.01733 -45.568169
32220000000 -35.975166 -156.52605 -1.1341342 130.84932 -1.1412251 130.8746 -23.054811 -44.740593
32230000000 -36.225063 -155.05249 -1.1343775 130.79405 -1.1380186 130.79588 -23.052416 -43.987331
32240000000 -36.445 -153.66061 -1.1347997 130.72762 -1.136384 130.71654 -23.105589 -43.327099
32250000000 -36.579273 -151.78096 -1.1319813 130.64449 -1.1360716 130.64618 -23.214529 -42.69339
32260000000 -36.68679 -150.99466 -1.1331044 130.57036 -1.138961 130.57034 -23.263678 -42.361168
32270000000 -37.313667 -149.54338 -1.1329036 130.50278 -1.1406441 130.50691 -23.390215 -41.899334
32280000000 -37.606987 -149.28728 -1.1337981 130.41798 -1.1386541 130.43478 -23.480991 -41.717674
32290000000 -38.131889 -148.6835 -1.1330547 130.35133 -1.1391639 130.35036 -23.574686 -41.795265
32300000000 -38.597038 -146.96474 -1.1326573 130.28545 -1.1429275 130.27318 -23.554806 -41.791279
32310000000 -38.847786 -149.25813 -1.1351134 130.20035 -1.14191 130.21944 -23.576918 -42.127827
32320000000 -39.169006 -149.25475 -1.1365235 130.11389 -1.1420264 130.12418 -23.537319 -42.172661
32330000000 -39.677738 -151.71907 -1.1370889 130.05441 -1.1417005 130.05713 -23.519224 -42.138187
32340000000 -40.252831 -150.97295 -1.1383489 129.95979 -1.1417856 129.95926 -23.474169 -41.672733
32350000000 -41.144585 -155.62201 -1.1355934 129.89038 -1.1429178 129.88905 -23.462952 -41.17778
32360000000 -41.249092 -157.29622 -1.1378155 129.80177 -1.1430576 129.82071 -23.381994 -40.566387
32370000000 -41.921097 -157.47305 -1.1356385 129.74265 -1.1424931 129.75166 -23.345392 -39.849396
32380000000 -42.165314 -159.86461 -1.1374497 129.65836 -1.1421227 129.68182 -23.326036 -38.873871
32390000000 -42.98386 -159.25668 -1.1350061 129.59924 -1.1408877 129.60583 -23.391487 -38.048851
32400000000 -43.249134 -161.98427 -1.136423 129.51636 -1.1416702 129.52676 -23.473248 -37.55024
32410000000 -43.749252 -157.62506 -1.1372933 129.46739 -1.143616 129.45131 -23.555029 -36.68985
32420000000 -44.059956 -159.45306 -1.1376628 129.36568 -1.1426989 129.37656 -23.653231 -36.779278
32430000000 -43.61134 -160.32924 -1.1366123 129.2935 -1.1426083 129.29265 -23.776808 -37.191109
32440000000 -44.257835 -160.43547 -1.1383792 129.21393 -1.1419423 129.2258 -23.85833 -37.443951
32450000000 -44.602619 -159.5345 -1.1354994 129.16226 -1.1429198 129.1601 -23.913649 -38.211849
32460000000 -44.643509 -162.82495 -1.1363358 129.06067 -1.1429356 129.063 -23.883202 -38.903961
32470000000 -45.117176 -165.11685 -1.1395657 129.01222 -1.1427653 128.99303 -23.877686 -39.00423
32480000000 -45.762386 -168.38351 -1.1382965 128.91737 -1.1417435 128.92125 -23.779713 -39.508255
32490000000 -45.831799 -171.17747 -1.1386491 128.8488 -1.1438667 128.86113 -23.669306 -39.699272
32500000000 -46.282795 -172.74596 -1.1389543 128.77065 -1.1427443 128.78296 -23.58556 -39.413441
32510000000 -46.848644 -176.39088 -1.1377455 128.68536 -1.1441126 128.70235 -23.42399 -39.241375
32520000000 -46.757748 179.12384 -1.1395515 128.61821 -1.1443362 128.61536 -23.390703 -38.162212
32530000000 -46.487648 176.9662 -1.1386949 128.53548 -1.1428117 128.53453 -23.333796 -37.320503
32540000000 -46.907547 174.52478 -1.1390516 128.45981 -1.1442288 128.46082 -23.344835 -36.513096
32550000000 -46.889782 170.59084 -1.1393372 128.40543 -1.1440957 128.37875 -23.397387 -35.213169
32560000000 -46.549202 177.34863 -1.1370559 128.30156 -1.1417352 128.29095 -23.501127 -34.506168
32570000000 -47.10675 175.05482 -1.1395015 128.22285 -1.1435776 128.21291 -23.658752 -34.175491
32580000000 -47.668816 174.47734 -1.1394008 128.15721 -1.1416655 128.13208 -23.776754 -33.711811
32590000000 -48.944885 -178.24756 -1.1388812 128.06371 -1.1452689 128.08301 -23.904211 -33.762547
32600000000 -50.749439 -174.84074 -1.1356065 127.99947 -1.1404058 127.98873 -24.050287 -34.238167
32610000000 -51.76017 -167.17966 -1.1373138 127.94012 -1.1412352 127.92825 -24.094122 -35.003311
32620000000 -52.760258 -177.13051 -1.1394163 127.84655 -1.1431506 127.84798 -24.113258 -35.670738
32630000000 -56.236038 177.57494 -1.1380465 127.79769 -1.1447506 127.77398 -24.04594 -36.305622
32640000000 -57.553429 166.33595 -1.1390986 127.69957 -1.1471236 127.69576 -23.928064 -36.575676
32650000000 -57.13047 130.41214 -1.1404636 127.63081 -1.1461623 127.63786 -23.83935 -36.390354
32660000000 -58.126114 129.15755 -1.1400523 127.54681 -1.148856 127.5582 -23.71294 -36.275742
32670000000 -55.597874 90.924652 -1.141822 127.48285 -1.1486224 127.47973 -23.567719 -35.761398
32680000000 -54.179577 75.058968 -1.1422517 127.38737 -1.1475248 127.38548 -23.460722 -34.769379
32690000000 -52.758675 69.698082 -1.1428251 127.30885 -1.1487646 127.30048 -23.434031 -34.071712
32700000000 -52.953537 66.60833 -1.1412358 127.22204 -1.1476388 127.23384 -23.447889 -33.204414
32710000000 -51.348454 64.283531 -1.143815 127.12778 -1.1467512 127.15636 -23.479507 -32.033989
32720000000 -50.581699 51.00423 -1.1461296 127.08152 -1.1512259 127.07872 -23.552662 -31.589304
32730000000 -49.040302 48.917442 -1.1437029 126.99966 -1.1464177 126.98705 -23.612246 -30.558926
32740000000 -47.733574 39.073524 -1.1405222 126.9313 -1.1466918 126.93694 -23.753326 -30.306587
32750000000 -46.742306 39.086224 -1.1444724 126.869 -1.1474695 126.87612 -23.823704 -30.598433
32760000000 -45.087772 34.521454 -1.1429192 126.78725 -1.1478286 126.79607 -23.879576 -30.739367
32770000000 -43.698952 33.91106 -1.1459584 126.71562 -1.1479092 126.72163 -23.859602 -30.735777
32780000000 -42.693413 36.637936 -1.1447157 126.64045 -1.1481718 126.65178 -23.801847 -30.933811
32790000000 -41.87254 37.267384 -1.1443578 126.59723 -1.1528394 126.57791 -23.805359 -31.201941
32800000000 -41.055386 40.100574 -1.1470376 126.49747 -1.1505531 126.50533 -23.748648 -30.823442
32810000000 -40.75816 43.849651 -1.1452965 126.4388 -1.1520541 126.45779 -23.669224 -30.810297
32820000000 -40.471306 45.853722 -1.1468445 126.36025 -1.1529154 126.36864 -23.5975 -30.268167
32830000000 -40.156204 48.500961 -1.1463041 126.28222 -1.1558498 126.27914 -23.546381 -30.492947
32840000000 -40.153667 51.161911 -1.1471567 126.20046 -1.1548008 126.20041 -23.582314 -29.677292
32850000000 -40.106384 53.719238 -1.1474476 126.13785 -1.1514105 126.12141 -23.594746 -29.32119
32860000000 -40.136227 50.886295 -1.1454602 126.05186 -1.1526325 126.06647 -23.662458 -28.904821
32870000000 -40.202927 53.616116 -1.1471997 125.98554 -1.1514971 125.9817 -23.659443 -28.812132
32880000000 -40.469734 52.291122 -1.145672 125.91203 -1.1535845 125.91959 -23.703226 -28.994967
32890000000 -40.235458 51.52813 -1.1462917 125.82793 -1.1517982 125.8331 -23.776438 -28.918291
32900000000 -40.080551 49.140091 -1.1476471 125.77191 -1.1486797 125.75916 -23.712994 -29.035381
32910000000 -39.560226 48.143856 -1.150653 125.68919 -1.1519321 125.69076 -23.730289 -29.35462
32920000000 -39.649612 45.402367 -1.1470491 125.60945 -1.1538883 125.61848 -23.724928 -29.50638
32930000000 -39.185017 48.004059 -1.1462866 125.52399 -1.1570684 125.52184 -23.697123 -29.366543
32940000000 -38.447014 46.14249 -1.1494567 125.46846 -1.15381 125.45761 -23.636763 -29.562054
32950000000 -38.348476 46.140491 -1.1510409 125.38183 -1.1561311 125.38297 -23.602219 -29.458979
32960000000 -38.19038 47.949532 -1.1482197 125.29427 -1.1569011 125.29496 -23.556831 -29.316551
32970000000 -38.263985 49.188896 -1.1513194 125.22543 -1.1550608 125.23498 -23.557339 -29.237314
32980000000 -38.256062 48.87011 -1.1513349 125.14742 -1.154042 125.15478 -23.554848 -28.866474
32990000000 -38.003445 48.354588 -1.1524631 125.06129 -1.155458 125.05925 -23.585634 -28.545034
33000000000 -37.952003 46.508934 -1.1490172 124.99403 -1.1555755 124.98097 -23.569155 -28.66613
33010000000 -37.742641 46.04084 -1.1494004 124.91856 -1.1541848 124.94824 -23.556154 -28.316999
33020000000 -37.901546 43.785934 -1.1500244 124.83087 -1.1536493 124.83583 -23.565796 -28.616732
33030000000 -37.609722 43.610725 -1.1498669 124.76252 -1.1557417 124.77681 -23.497541 -28.971577
33040000000 -37.196815 40.608974 -1.1506894 124.69257 -1.1539569 124.7077 -23.426319 -28.566498
33050000000 -36.809395 39.358418 -1.1513216 124.61463 -1.155582 124.62202 -23.380632 -28.5721
33060000000 -36.132256 38.924824 -1.1543276 124.54424 -1.1559681 124.55052 -23.278614 -28.353058
33070000000 -35.832424 39.196262 -1.1535953 124.47414 -1.1573999 124.47979 -23.181854 -28.00197
33080000000 -35.374336 38.603607 -1.1539258 124.39078 -1.1576828 124.39624 -23.092287 -27.18856
33090000000 -35.026562 39.929108 -1.1500541 124.29128 -1.157217 124.30097 -22.988853 -26.35894
33100000000 -34.681721 40.651108 -1.1520237 124.2166 -1.1574047 124.22755 -22.992977 -25.301064
33110000000 -34.76334 41.450134 -1.1507974 124.13737 -1.1551287 124.13447 -23.022408 -24.300066
33120000000 -34.641697 42.181046 -1.1519804 124.0499 -1.1559896 124.06828 -23.046587 -23.478355
33130000000 -34.441067 41.62991 -1.1516703 124.0062 -1.1559289 124.01043 -23.163855 -22.489449
33140000000 -34.520481 41.414665 -1.1531214 123.91716 -1.1551827 123.93268 -23.31987 -21.992668
33150000000 -34.43734 41.053974 -1.1516798 123.83535 -1.1547028 123.85448 -23.43272 -21.758471
33160000000 -34.613636 40.575237 -1.1523381 123.78168 -1.1561352 123.7737 -23.570549 -21.454151
33170000000 -34.508427 38.173401 -1.1541662 123.70521 -1.15556 123.7235 -23.774252 -21.526201
33180000000 -34.251499 36.348816 -1.151614 123.63255 -1.1572492 123.62943 -23.840925 -22.450947
33190000000 -34.135918 35.982929 -1.154532 123.56867 -1.1593386 123.55042 -23.921591 -23.037113
33200000000 -33.919235 34.76125 -1.1536287 123.48161 -1.1617746 123.48996 -23.950413 -24.148726
33210000000 -33.851814 36.172794 -1.1551142 123.40395 -1.162003 123.41508 -23.922483 -25.104765
33220000000 -33.583031 35.142506 -1.1555523 123.30858 -1.1581353 123.32266 -23.813925 -26.191572
33230000000 -33.316113 35.698219 -1.1565403 123.21365 -1.1575959 123.23402 -23.696795 -26.735292
33240000000 -33.141365 36.343151 -1.1561799 123.16334 -1.1614915 123.14806 -23.556635 -27.159189
33250000000 -32.864769 36.694427 -1.1588147 123.05889 -1.1610134 123.07075 -23.393799 -27.107267
33260000000 -32.837242 37.418163 -1.1571614 123.04217 -1.1589261 123.01325 -23.291386 -26.986813
33270000000 -32.607742 38.285183 -1.1595789 122.9268 -1.1616066 122.95898 -23.169134 -26.719004
33280000000 -32.307255 37.719578 -1.1573164 122.85874 -1.1618782 122.87428 -23.060173 -26.31419
33290000000 -32.167583 37.908169 -1.1571127 122.78625 -1.1611598 122.80391 -22.9636 -25.79417
33300000000 -31.798206 37.7878 -1.1591614 122.70085 -1.1634524 122.72245 -22.898285 -25.308825
33310000000 -31.669769 37.792938 -1.1574914 122.63281 -1.1631563 122.65083 -22.881205 -24.693125
33320000000 -31.3794 38.888912 -1.161359 122.54223 -1.1661918 122.58028 -22.87595 -24.474993
33330000000 -31.265062 38.706852 -1.1625994 122.4736 -1.1653512 122.51446 -22.84421 -24.004223
33340000000 -30.937468 39.479317 -1.1599103 122.41257 -1.1662091 122.44053 -22.821915 -23.857145
33350000000 -30.815672 39.161079 -1.1656487 122.32638 -1.1665826 122.32392 -22.838139 -23.674582
33360000000 -30.775057 40.794598 -1.163851 122.25172 -1.166587 122.26945 -22.756994 -23.616278
33370000000 -30.671343 40.301212 -1.163743 122.18098 -1.1700169 122.17515 -22.734324 -23.439276
33380000000 -30.616316 40.402641 -1.1655939 122.07561 -1.1703731 122.11543 -22.647099 -23.722412
33390000000 -30.597082 41.130421 -1.1634047 122.0301 -1.1705019 122.03477 -22.627401 -23.284506
33400000000 -30.589907 41.403675 -1.1637857 121.95074 -1.166656 121.95351 -22.573624 -22.808043
33410000000 -30.463539 40.716942 -1.1629486 121.90491 -1.169389 121.87406 -22.539402 -22.698864
33420000000 -30.411325 40.792271 -1.1612 121.79065 -1.1680986 121.81597 -22.503845 -22.082548
33430000000 -30.375078 40.167358 -1.1615264 121.7189 -1.1663113 121.75592 -22.572525 -21.425924
33440000000 -30.34927 40.86301 -1.1646271 121.68199 -1.1645496 121.665 -22.537012 -20.980665
33450000000 -30.154825 39.448757 -1.1634243 121.59056 -1.1674441 121.60596 -22.618078 -20.564379
33460000000 -30.112898 39.538216 -1.1660388 121.53501 -1.1694547 121.51644 -22.679905 -19.886566
33470000000 -30.069351 39.407024 -1.1614733 121.44861 -1.1711242 121.44529 -22.774668 -20.20472
33480000000 -29.894695 38.602226 -1.1671268 121.36271 -1.1710225 121.36917 -22.783955 -20.208988
33490000000 -29.81601 38.342461 -1.1678339 121.27811 -1.1710337 121.28835 -22.801962 -20.515192
33500000000 -29.567137 38.14946 -1.1682421 121.21273 -1.1716815 121.22125 -22.861044 -20.939524
33510000000 -29.663021 38.860039 -1.1684176 121.11812 -1.1718453 121.13068 -22.793961 -21.170488
33520000000 -29.494516 39.258095 -1.1678628 121.05534 -1.1704808 121.06776 -22.82937 -21.717484
33530000000 -29.233816 39.730301 -1.1675237 120.98511 -1.1709514 120.96924 -22.770418 -22.128984
33540000000 -29.074131 39.519451 -1.166486 120.90076 -1.1715006 120.8861 -22.661369 -21.962923
33550000000 -29.153923 40.378735 -1.1638643 120.82472 -1.1717554 120.82019 -22.534037 -22.228441
33560000000 -28.982639 40.700451 -1.1634805 120.75988 -1.17105 120.7449 -22.468477 -21.828075
33570000000 -28.811161 40.934422 -1.1672469 120.7074 -1.1700634 120.7079 -22.374138 -21.826456
33580000000 -28.740019 41.252144 -1.1687306 120.61042 -1.1728269 120.60617 -22.306854 -21.161783
33590000000 -28.746048 41.773449 -1.1697475 120.53921 -1.1739587 120.54856 -22.231934 -20.642044
33600000000 -28.619688 41.237003 -1.1720698 120.4491 -1.1749184 120.44324 -22.236897 -20.095306
33610000000 -28.565006 40.942516 -1.1702789 120.37856 -1.1811544 120.37665 -22.203318 -19.782406
33620000000 -28.685577 40.247997 -1.1730388 120.31841 -1.1781533 120.29729 -22.268711 -19.315544
33630000000 -28.664427 40.307564 -1.1731936 120.22147 -1.1801685 120.22305 -22.33489 -19.0287
33640000000 -28.653416 39.440094 -1.1753181 120.15383 -1.1801356 120.13553 -22.32918 -19.043552
33650000000 -28.602724 38.266628 -1.1730874 120.0715 -1.1800778 120.07043 -22.305401 -19.086168
33660000000 -28.533979 37.470108 -1.1746935 119.97039 -1.181609 119.98914 -22.381823 -19.606285
33670000000 -28.334063 37.282532 -1.1724129 119.93555 -1.1768839 119.92247 -22.358788 -19.58807
33680000000 -28.250349 36.664116 -1.1748624 119.83835 -1.1795554 119.85511 -22.280764 -19.971445
33690000000 -28.068224 37.144302 -1.1735028 119.76066 -1.1794845 119.76741 -22.225641 -20.111786
33700000000 -27.856588 36.961048 -1.1744924 119.69046 -1.1810484 119.71755 -22.129246 -20.284895
33710000000 -27.688555 36.780571 -1.1757963 119.62521 -1.1841549 119.63364 -22.014423 -20.258646
33720000000 -27.488005 36.841747 -1.1803492 119.54153 -1.1871942 119.54438 -21.916861 -19.864992
33730000000 -27.420755 37.803749 -1.1812496 119.46515 -1.1814144 119.46968 -21.805836 -19.578239
33740000000 -27.368103 37.508015 -1.1809825 119.40865 -1.1829916 119.39467 -21.764032 -19.047491
33750000000 -27.348179 37.431313 -1.1812197 119.31218 -1.1862212 119.32217 -21.692924 -18.246227
33760000000 -27.37615 37.817215 -1.1807889 119.24693 -1.1826516 119.24722 -21.715191 -17.600616
33770000000 -27.338362 36.665848 -1.1793323 119.15463 -1.1852648 119.15467 -21.730192 -16.902224
33780000000 -27.220064 36.704483 -1.1811252 119.07727 -1.1796244 119.09394 -21.787666 -16.200029
33790000000 -27.294737 35.66254 -1.1780868 119.02347 -1.1870772 119.01471 -21.81242 -15.992163
33800000000 -27.127306 35.005985 -1.1801454 118.93887 -1.1860876 118.9258 -21.872166 -15.888353
33810000000 -26.99881 33.982925 -1.1822653 118.86062 -1.1864138 118.84664 -21.868624 -15.992139
33820000000 -26.84082 33.753086 -1.1827768 118.79576 -1.1839652 118.79385 -21.902744 -16.374495
33830000000 -26.673664 33.513783 -1.1827098 118.71957 -1.1844341 118.71266 -21.883759 -16.530697
33840000000 -26.475939 33.540936 -1.1831034 118.66805 -1.1849135 118.64973 -21.84087 -16.682907
33850000000 -26.328856 33.472767 -1.1852512 118.58862 -1.1911952 118.56307 -21.76849 -16.962576
33860000000 -26.211376 34.749825 -1.1849724 118.52789 -1.1885871 118.52053 -21.672796 -16.926857
33870000000 -26.100704 35.435726 -1.1858138 118.44645 -1.1856393 118.4436 -21.641285 -16.796915
33880000000 -26.004416 35.694405 -1.1832509 118.34008 -1.1918869 118.36132 -21.578127 -16.320814
33890000000 -26.023762 35.89616 -1.1860737 118.28358 -1.1876495 118.29908 -21.537167 -15.875552
33900000000 -25.978146 36.410484 -1.1844443 118.20007 -1.1898925 118.20953 -21.508299 -15.379274
33910000000 -25.925209 36.510044 -1.1875008 118.14566 -1.1888443 118.11581 -21.517868 -14.896576
33920000000 -25.969389 36.915535 -1.1879572 118.06802 -1.1874474 118.04623 -21.583511 -14.74394
33930000000 -25.936411 36.940807 -1.1839849 118.00768 -1.1885146 117.98714 -21.687529 -14.491549
33940000000 -25.94352 36.748554 -1.184479 117.92184 -1.1913233 117.92631 -21.708342 -14.471249
33950000000 -25.880924 37.040558 -1.1832496 117.84612 -1.1884757 117.87203 -21.77816 -14.693733
33960000000 -25.929358 36.543777 -1.1854876 117.8041 -1.1923597 117.80434 -21.839664 -15.353461
33970000000 -25.821379 36.855461 -1.1884983 117.68797 -1.1932316 117.71206 -21.831432 -15.792837
33980000000 -25.737415 36.897511 -1.1890703 117.65367 -1.1932942 117.62944 -21.815493 -16.935802
33990000000 -25.72431 37.19582 -1.19008 117.56171 -1.194947 117.57117 -21.763336 -17.19009
34000000000 -25.659252 36.962051 -1.1913655 117.48084 -1.1954563 117.49271 -21.619974 -17.439495
34010000000 -25.621874 36.688015 -1.1933855 117.39703 -1.1963574 117.38955 -21.428579 -17.689777
34020000000 -25.521242 36.874901 -1.1939628 117.31203 -1.1954277 117.30688 -21.276178 -17.659218
34030000000 -25.631701 36.261612 -1.1976235 117.23949 -1.2002203 117.22259 -21.134909 -17.17387
34040000000 -25.593084 35.700844 -1.1921614 117.14734 -1.1959666 117.15253 -21.082308 -16.262491
34050000000 -25.50745 34.690716 -1.1985779 117.07295 -1.1973121 117.06552 -20.947258 -15.422987
34060000000 -25.436024 33.492344 -1.1956795 116.98967 -1.2008528 116.9919 -20.938147 -14.483801
34070000000 -25.287994 32.88736 -1.1948625 116.91448 -1.1987993 116.90601 -20.977957 -13.766753
34080000000 -25.09494 32.753738 -1.1922388 116.83663 -1.1981357 116.83994 -20.99255 -12.555964
34090000000 -24.95503 31.97258 -1.192916 116.77289 -1.2010942 116.78311 -21.077263 -12.443926
34100000000 -24.886097 31.609959 -1.1932762 116.68137 -1.2003218 116.70087 -21.181038 -12.269355
34110000000 -24.699657 32.402794 -1.190884 116.63334 -1.1972241 116.63056 -21.321943 -11.820578
34120000000 -24.543596 32.745098 -1.1918986 116.54781 -1.197204 116.551 -21.389227 -12.485937
34130000000 -24.505051 33.386684 -1.1953247 116.48528 -1.1959963 116.48429 -21.454952 -13.050815
34140000000 -24.474451 33.650421 -1.1974635 116.42404 -1.199528 116.42167 -21.440157 -14.264698
34150000000 -24.461849 34.349941 -1.1941444 116.34676 -1.201488 116.33843 -21.400976 -14.812964
34160000000 -24.476259 35.018974 -1.1973697 116.27679 -1.2022377 116.26647 -21.320786 -15.451254
34170000000 -24.482878 35.166954 -1.1973029 116.20313 -1.1997222 116.18084 -21.195282 -15.449288
34180000000 -24.481873 35.10062 -1.1999528 116.10151 -1.2028857 116.10725 -21.053642 -15.499504
34190000000 -24.522951 34.974796 -1.1951131 116.03728 -1.2041805 116.05855 -20.97039 -15.400146
34200000000 -24.482323 34.49181 -1.1986508 115.98025 -1.2064795 115.97612 -20.823177 -15.174773
34210000000 -24.471704 34.403622 -1.1999433 115.88852 -1.2047602 115.90131 -20.785839 -14.589284
34220000000 -24.480259 33.961113 -1.1999358 115.82889 -1.2056689 115.81975 -20.774063 -13.830154
34230000000 -24.380569 33.602501 -1.2001886 115.76284 -1.2045491 115.74846 -20.780888 -13.188864
34240000000 -24.327745 33.091118 -1.1983179 115.68784 -1.2052559 115.67709 -20.823042 -13.163845
34250000000 -24.261948 32.991169 -1.2005166 115.60733 -1.2083668 115.62385 -20.879171 -12.79233
34260000000 -24.257256 32.819386 -1.2014567 115.55708 -1.2067437 115.53902 -20.942163 -12.848989
34270000000 -24.235609 32.606358 -1.2047772 115.48132 -1.2095869 115.4592 -20.946398 -12.888141
34280000000 -24.153629 33.022324 -1.2028694 115.39626 -1.2096912 115.3968 -20.99246 -13.094819
34290000000 -24.16906 32.618999 -1.2051213 115.34283 -1.21097 115.30973 -20.99626 -13.396703
34300000000 -24.172575 32.646797 -1.2040305 115.26235 -1.2106895 115.2356 -20.955061 -13.49288
34310000000 -24.112892 31.818159 -1.206362 115.17699 -1.2127898 115.16048 -20.875256 -14.185165
34320000000 -24.059374 31.73798 -1.2067571 115.09828 -1.212194 115.10781 -20.843971 -13.980742
34330000000 -23.96207 30.71586 -1.2067499 115.02984 -1.2096866 115.02115 -20.712225 -13.738914
34340000000 -23.792753 30.513308 -1.2053109 114.93011 -1.2166586 114.95252 -20.621927 -13.627963
34350000000 -23.648737 30.35321 -1.210717 114.87503 -1.21383 114.86672 -20.550419 -12.791721
34360000000 -23.526823 30.140146 -1.205479 114.79079 -1.2128565 114.77809 -20.524321 -12.33387
34370000000 -23.330183 30.487967 -1.2070844 114.72288 -1.2153893 114.71225 -20.500347 -11.78968
34380000000 -23.244087 30.578791 -1.2102134 114.64389 -1.2143439 114.63609 -20.467741 -11.437148
34390000000 -23.136492 30.948957 -1.2111835 114.57148 -1.2151023 114.56517 -20.478283 -10.946969
34400000000 -23.082212 31.39016 -1.2082902 114.48427 -1.214775 114.49863 -20.485353 -10.81835
34410000000 -23.081869 31.373495 -1.206864 114.42467 -1.2153351 114.43146 -20.54957 -10.812595
34420000000 -23.045631 31.624712 -1.2092599 114.35847 -1.2157828 114.33869 -20.510227 -10.833583
34430000000 -23.087952 32.253162 -1.2083695 114.27441 -1.2147133 114.27077 -20.565588 -10.93874
34440000000 -23.117184 31.885563 -1.2093782 114.19836 -1.2167028 114.19831 -20.530376 -11.028125
34450000000 -23.129108 31.872734 -1.2097995 114.12505 -1.2142512 114.13168 -20.527143 -11.085841
34460000000 -23.177813 31.451342 -1.2145579 114.05113 -1.2165312 114.05434 -20.503529 -11.214498
34470000000 -23.096231 30.957844 -1.2124442 113.9861 -1.2169231 113.96926 -20.445431 -11.039816
34480000000 -23.076637 30.490047 -1.2135904 113.93032 -1.2158978 113.88963 -20.424505 -10.812865
34490000000 -23.020691 30.158524 -1.2120996 113.82747 -1.217599 113.83233 -20.405724 -10.400783
34500000000 -22.937353 29.672539 -1.2168573 113.73215 -1.2172811 113.75195 -20.417505 -10.071922
34510000000 -22.851973 29.845974 -1.2132765 113.66113 -1.2183028 113.68695 -20.440914 -9.6691704
34520000000 -22.697861 30.099804 -1.2118771 113.58714 -1.2162489 113.59197 -20.511415 -9.4106836
34530000000 -22.68787 30.713139 -1.213374 113.49987 -1.2151698 113.50679 -20.613338 -9.2504396
34540000000 -22.680008 31.167854 -1.2119161 113.4414 -1.2156979 113.41467 -20.652983 -9.4116926
34550000000 -22.680817 31.59609 -1.2111182 113.37592 -1.2148876 113.35178 -20.771805 -10.128348
34560000000 -22.723806 32.282444 -1.2099148 113.29393 -1.2158184 113.27634 -20.843653 -10.567548
34570000000 -22.766693 32.710716 -1.2138098 113.22269 -1.2155293 113.2094 -20.91823 -11.252583
34580000000 -22.858192 33.163456 -1.2121881 113.1737 -1.2162009 113.14177 -20.90081 -12.124234
34590000000 -22.932678 33.459984 -1.2119442 113.10074 -1.2216107 113.08932 -20.857538 -13.163065
34600000000 -22.973671 33.089291 -1.2138071 113.02282 -1.2182868 113.03175 -20.822399 -13.708683
34610000000 -23.093605 33.034721 -1.216226 112.97702 -1.2201842 112.95506 -20.718258 -13.961595
34620000000 -23.089554 32.747078 -1.2150654 112.89909 -1.2225045 112.88917 -20.610832 -14.484214
34630000000 -23.140749 31.923117 -1.2196618 112.80983 -1.2245939 112.81695 -20.46357 -14.380795
34640000000 -23.079266 31.393524 -1.2182699 112.7268 -1.2261235 112.71291 -20.352339 -13.95541
34650000000 -23.053198 30.722792 -1.2197434 112.66555 -1.2257138 112.65854 -20.319305 -13.486412
34660000000 -22.967571 30.190666 -1.223361 112.57613 -1.2290628 112.5751 -20.229731 -12.911375
34670000000 -22.895657 29.674604 -1.2236317 112.49189 -1.2287824 112.50755 -20.235388 -12.140261
34680000000 -22.83396 29.404898 -1.2238497 112.40116 -1.2275202 112.3941 -20.213488 -11.473391
34690000000 -22.736362 29.293264 -1.224049 112.29758 -1.2293695 112.32823 -20.241213 -10.902592
34700000000 -22.705168 28.869987 -1.2249604 112.25258 -1.2302756 112.24712 -20.295336 -10.62875
34710000000 -22.649796 28.863148 -1.2254808 112.21555 -1.2289546 112.18161 -20.363989 -10.494807
34720000000 -22.614592 28.832012 -1.2220271 112.10992 -1.2257235 112.10134 -20.403519 -10.285189
34730000000 -22.582739 28.595781 -1.2255652 112.03178 -1.2282329 112.03316 -20.430719 -10.170604
34740000000 -22.503708 28.636549 -1.2237103 111.96591 -1.2292414 111.96667 -20.435823 -10.411871
34750000000 -22.44738 28.269365 -1.2275109 111.86881 -1.2308464 111.88351 -20.417154 -10.557231
34760000000 -22.415665 28.612246 -1.2232983 111.79919 -1.2307667 111.80621 -20.396963 -10.299616
34770000000 -22.350624 28.524836 -1.2277627 111.73757 -1.2324919 111.71838 -20.335886 -10.265289
34780000000 -22.286266 28.195499 -1.2266082 111.66037 -1.2327982 111.65324 -20.325367 -9.8942385
34790000000 -22.249409 28.253994 -1.2313682 111.57326 -1.2357744 111.57598 -20.273666 -9.4999771
34800000000 -22.170307 28.132248 -1.2346007 111.48153 -1.2376583 111.48158 -20.295034 -9.4489059
34810000000 -22.120872 28.569998 -1.2295572 111.39715 -1.2360115 111.41856 -20.316736 -8.7757769
34820000000 -22.140676 28.833319 -1.2298931 111.35732 -1.2343695 111.33746 -20.403185 -8.343812
34830000000 -22.132528 28.728374 -1.2304268 111.28207 -1.2342652 111.27328 -20.468658 -8.2385454
34840000000 -22.149935 28.903572 -1.2287052 111.19123 -1.2324046 111.19024 -20.56045 -8.0776815
34850000000 -22.173946 29.128981 -1.2261337 111.13821 -1.2315263 111.11769 -20.668715 -8.44837
34860000000 -22.154858 28.962717 -1.2253809 111.04677 -1.2326748 111.05854 -20.736406 -8.8073845
34870000000 -22.181078 28.971767 -1.2280223 111.01982 -1.230642 110.99052 -20.806112 -9.2773113
34880000000 -22.160166 29.026413 -1.2282906 110.915 -1.2264757 110.91119 -20.805363 -9.713131
34890000000 -22.16156 28.699469 -1.2284757 110.85748 -1.2324276 110.86211 -20.821287 -10.437177
34900000000 -22.157654 28.591204 -1.2312093 110.78339 -1.232398 110.76791 -20.777777 -10.81632
34910000000 -22.129225 28.371954 -1.2297306 110.70585 -1.2347881 110.70578 -20.721678 -11.307505
34920000000 -22.067329 28.514559 -1.2296554 110.63631 -1.236456 110.62539 -20.671667 -11.461097
34930000000 -21.997061 28.770662 -1.2281847 110.558 -1.2380854 110.52734 -20.642183 -11.305024
34940000000 -21.957302 28.935003 -1.2320495 110.46866 -1.2350172 110.45899 -20.612179 -11.201925
34950000000 -21.884493 29.597334 -1.2296423 110.41919 -1.2362503 110.37785 -20.649166 -11.163756
34960000000 -21.898954 29.738651 -1.2305306 110.31444 -1.2403849 110.31305 -20.662102 -10.953828
34970000000 -21.836319 30.362818 -1.2346288 110.24575 -1.2376214 110.22653 -20.683578 -10.8476
34980000000 -21.864468 30.837399 -1.2325575 110.17617 -1.236837 110.16545 -20.769518 -11.212453
34990000000 -21.864719 31.421907 -1.233335 110.09205 -1.2400701 110.08887 -20.832014 -11.543778
35000000000 -21.893932 31.934509 -1.2314888 110.03745 -1.2368894 110.01007 -20.877501 -11.955601
35010000000 -21.976276 32.335941 -1.2336771 109.97259 -1.2372779 109.96712 -20.953363 -12.811461
35020000000 -22.005655 32.481407 -1.2332907 109.88942 -1.2389072 109.88939 -20.87294 -13.639759
35030000000 -22.109335 32.407017 -1.2362193 109.81657 -1.2377053 109.78977 -20.805683 -14.081282
35040000000 -22.145618 32.494644 -1.2355597 109.7776 -1.2379143 109.7308 -20.755314 -14.860813
35050000000 -22.18721 32.026165 -1.2389789 109.67915 -1.2408748 109.68477 -20.645214 -15.087741
35060000000 -22.219793 32.031548 -1.2388697 109.61728 -1.2408183 109.61187 -20.570469 -15.052369
35070000000 -22.177658 31.788565 -1.2368507 109.52637 -1.2425354 109.54099 -20.487076 -14.796064
35080000000 -22.197824 31.56229 -1.2395067 109.45371 -1.2414938 109.44569 -20.408916 -14.3072
35090000000 -22.202204 31.174343 -1.2413212 109.38337 -1.2453314 109.36787 -20.38443 -13.636765
35100000000 -22.169683 30.980858 -1.2394347 109.30887 -1.2466475 109.28724 -20.405991 -13.097278
35110000000 -22.172777 30.794018 -1.2426529 109.21066 -1.2442232 109.21791 -20.461628 -12.272401
35120000000 -22.145754 30.601154 -1.2412313 109.14037 -1.2491086 109.13864 -20.505077 -11.816177
35130000000 -22.124624 30.696827 -1.236707 109.07446 -1.2422966 109.05443 -20.628124 -11.424701
35140000000 -22.110714 30.387362 -1.2403016 109.01133 -1.2453383 108.97528 -20.716244 -11.590681
35150000000 -22.109423 30.80998 -1.241879 108.94418 -1.2431515 108.9351 -20.829357 -11.54445
35160000000 -22.15871 30.861984 -1.2434832 108.84753 -1.2436969 108.83729 -20.894346 -11.578698
35170000000 -22.117785 31.211515 -1.2417804 108.76669 -1.2463363 108.7718 -20.930393 -11.938828
35180000000 -22.155405 31.276525 -1.2403384 108.71297 -1.2483641 108.70551 -20.959887 -12.3431
35190000000 -22.188532 31.449018 -1.2407284 108.64198 -1.2432053 108.61449 -20.994415 -12.369723
35200000000 -22.259125 31.855907 -1.241624 108.57734 -1.2469171 108.56268 -21.016018 -12.873468
35210000000 -22.292393 31.948568 -1.2409523 108.5061 -1.2445514 108.48128 -21.016788 -12.776975
35220000000 -22.265791 32.321434 -1.2428759 108.41942 -1.2423655 108.4268 -21.016027 -12.839311
35230000000 -22.390511 32.177792 -1.2410583 108.35092 -1.245966 108.32645 -21.075785 -12.646364
35240000000 -22.451862 31.944685 -1.2404214 108.29688 -1.2441181 108.25625 -21.183851 -12.543352
35250000000 -22.548229 31.878775 -1.2403505 108.20612 -1.2439768 108.19946 -21.229708 -12.530305
35260000000 -22.596615 32.109119 -1.2383271 108.13701 -1.2458217 108.13836 -21.318983 -12.538948
35270000000 -22.661926 31.821856 -1.2421536 108.05706 -1.2438114 108.06859 -21.510323 -12.960156
35280000000 -22.702496 31.491789 -1.2417326 107.97197 -1.2428803 107.99798 -21.602072 -13.520322
35290000000 -22.802399 31.220617 -1.2406068 107.91882 -1.2440454 107.91238 -21.705399 -14.099295
35300000000 -22.824728 30.985519 -1.2437148 107.85463 -1.2439991 107.86529 -21.799664 -14.812859
35310000000 -22.786015 30.84498 -1.2397423 107.77666 -1.2435073 107.78117 -21.792736 -15.73065
35320000000 -22.766098 30.887615 -1.2382431 107.72797 -1.2451966 107.7212 -21.790768 -16.744608
35330000000 -22.73382 30.788294 -1.2381977 107.6409 -1.2427959 107.66569 -21.734018 -17.460487
35340000000 -22.673574 31.254314 -1.2407291 107.58965 -1.2464346 107.59023 -21.638918 -18.446642
35350000000 -22.653948 30.893906 -1.2415166 107.51331 -1.2435404 107.5178 -21.555241 -18.57753
35360000000 -22.616079 31.504593 -1.2382307 107.44273 -1.2452704 107.43635 -21.430946 -18.712801
35370000000 -22.580542 31.508657 -1.2382056 107.36835 -1.2436858 107.36932 -21.339947 -18.740049
35380000000 -22.555763 31.711975 -1.2409285 107.31464 -1.2443422 107.29286 -21.318483 -18.374363
35390000000 -22.594589 32.257332 -1.2399303 107.22956 -1.2465967 107.20485 -21.229116 -18.066635
35400000000 -22.589167 32.486576 -1.2404001 107.14846 -1.2468823 107.14667 -21.235664 -17.592222
35410000000 -22.59189 32.500366 -1.2379787 107.07746 -1.2462615 107.09563 -21.305193 -16.915224
35420000000 -22.667694 32.787899 -1.240168 107.01 -1.2456769 106.9851 -21.347164 -16.895098
35430000000 -22.682003 32.762684 -1.2434074 106.90478 -1.2476647 106.91729 -21.408895 -16.894297
35440000000 -22.754196 32.591904 -1.242218 106.84483 -1.2482572 106.84408 -21.500809 -16.506819
35450000000 -22.819122 32.567459 -1.2421457 106.77225 -1.2468517 106.74605 -21.577539 -16.342899
35460000000 -22.851397 32.509884 -1.2414269 106.68713 -1.2439147 106.68757 -21.694923 -16.770159
35470000000 -22.878689 32.666973 -1.2410731 106.60815 -1.2417215 106.6035 -21.782867 -17.232533
35480000000 -22.909904 32.623379 -1.2403997 106.53716 -1.2475743 106.54752 -21.788752 -17.569483
35490000000 -22.954268 32.767002 -1.2411001 106.4562 -1.2413852 106.47359 -21.831825 -17.938789
35500000000 -22.94898 32.577473 -1.2400908 106.39744 -1.2456114 106.39648 -21.90167 -18.028809
35510000000 -22.967838 32.671139 -1.240757 106.31882 -1.2456831 106.31576 -21.911665 -18.455841
35520000000 -23.005005 32.737522 -1.2395639 106.24458 -1.2416409 106.22154 -21.984484 -18.346439
35530000000 -22.990517 33.014668 -1.2402716 106.15502 -1.2467557 106.16606 -21.984575 -18.471273
35540000000 -23.04073 33.152225 -1.2405668 106.09507 -1.2434562 106.08982 -22.084572 -18.76148
35550000000 -23.050901 33.526443 -1.2402482 106.01994 -1.2439685 106.00305 -22.138269 -18.494413
35560000000 -23.071053 33.698219 -1.2342818 105.90716 -1.2454059 105.93532 -22.226704 -18.860191
35570000000 -23.104506 34.342361 -1.2394695 105.86845 -1.243237 105.83726 -22.350119 -19.307268
35580000000 -23.116753 34.291168 -1.2396063 105.76849 -1.2464529 105.7771 -22.473045 -20.221199
35590000000 -23.168243 34.575603 -1.2346306 105.68774 -1.2427573 105.6867 -22.552092 -20.682049
35600000000 -23.237602 34.871243 -1.2355084 105.60473 -1.2393242 105.61547 -22.61409 -21.856152
35610000000 -23.258654 34.9524 -1.2341741 105.55933 -1.2438458 105.56069 -22.596451 -23.127241
35620000000 -23.252625 35.559174 -1.2353021 105.50675 -1.2386363 105.49032 -22.54777 -24.008078
35630000000 -23.288647 35.68568 -1.2367042 105.43748 -1.2395136 105.38831 -22.485811 -25.211571
35640000000 -23.265568 35.844887 -1.2392702 105.35062 -1.2389675 105.33249 -22.3377 -25.721529
35650000000 -23.315416 36.111122 -1.2334203 105.28044 -1.2394458 105.27515 -22.263922 -26.006851
35660000000 -23.351425 36.669426 -1.236432 105.21044 -1.2385584 105.19958 -22.107111 -25.965744
35670000000 -23.378769 36.796772 -1.2349136 105.13926 -1.2385471 105.13812 -22.041586 -25.436876
35680000000 -23.445553 36.784397 -1.2390856 105.04774 -1.2426033 105.05775 -21.965639 -24.916416
35690000000 -23.492079 37.07259 -1.2360848 104.9725 -1.2426867 104.97787 -22.016108 -24.410252
35700000000 -23.610376 37.273872 -1.2371777 104.88544 -1.2428052 104.90607 -22.085524 -23.436619
35710000000 -23.706005 37.200771 -1.236017 104.81318 -1.2444814 104.81598 -22.192003 -23.171707
35720000000 -23.849577 37.309238 -1.2390146 104.72387 -1.2434808 104.72547 -22.384682 -22.264822
35730000000 -23.972389 37.341682 -1.2402768 104.6631 -1.2428725 104.67311 -22.532984 -22.587698
35740000000 -24.023064 37.253109 -1.2371664 104.57476 -1.2429755 104.59267 -22.744963 -22.897989
35750000000 -24.101351 36.974483 -1.2332566 104.506 -1.2386235 104.50026 -22.869101 -23.470287
35760000000 -24.199427 36.689556 -1.2339578 104.45317 -1.2391645 104.44775 -23.025513 -24.412144
35770000000 -24.28368 36.511837 -1.2368474 104.35424 -1.2372404 104.37142 -23.050648 -25.218513
35780000000 -24.285492 36.252979 -1.2347599 104.30724 -1.2388917 104.30788 -23.079126 -26.153502
35790000000 -24.271965 35.925579 -1.2322106 104.24023 -1.2371922 104.24783 -23.103878 -27.399166
35800000000 -24.2495 36.035049 -1.2324871 104.15462 -1.2363256 104.17043 -23.021545 -27.820248
35810000000 -24.22032 36.120159 -1.2341428 104.12187 -1.2371361 104.11308 -22.967501 -28.26333
35820000000 -24.144419 36.71463 -1.2342976 104.02843 -1.2395109 104.00981 -22.863459 -28.529541
35830000000 -24.212595 37.126144 -1.2374049 103.96064 -1.2391762 103.94505 -22.829412 -28.046522
35840000000 -24.234003 37.075611 -1.2334031 103.87669 -1.2412286 103.88499 -22.827326 -28.11034
35850000000 -24.322084 37.741058 -1.2353492 103.81309 -1.2394161 103.81396 -22.866785 -27.832703
35860000000 -24.40563 38.25256 -1.235378 103.7166 -1.2405576 103.70489 -22.996489 -27.5676
35870000000 -24.473495 38.530628 -1.2364035 103.64841 -1.2411879 103.62922 -23.151541 -27.896599
35880000000 -24.548918 39.026974 -1.2339616 103.56215 -1.2395508 103.5494 -23.213623 -28.411354
35890000000 -24.682966 39.271587 -1.2332143 103.48873 -1.2366753 103.48941 -23.377203 -29.321095
35900000000 -24.807276 39.05331 -1.2310024 103.40835 -1.2374004 103.40797 -23.514648 -29.917107
35910000000 -24.943972 39.357571 -1.2339382 103.29982 -1.2365153 103.34206 -23.576838 -30.411434
35920000000 -25.014093 39.156067 -1.2316551 103.27572 -1.234709 103.26475 -23.605267 -31.589216
35930000000 -25.074959 39.172535 -1.2301701 103.19561 -1.2363741 103.18187 -23.578892 -32.505276
35940000000 -25.175688 39.379639 -1.2321911 103.10891 -1.2372311 103.13736 -23.52409 -33.163414
35950000000 -25.180065 39.309788 -1.2306495 103.07912 -1.2365531 103.05428 -23.479641 -33.101883
35960000000 -25.178389 39.039127 -1.233845 102.99889 -1.2363583 102.99062 -23.444561 -33.403629
35970000000 -25.283087 38.836578 -1.2331566 102.91196 -1.2391413 102.89394 -23.431259 -33.397999
35980000000 -25.24637 39.534904 -1.2317985 102.83332 -1.2395353 102.83548 -23.434473 -33.058563
35990000000 -25.321085 39.433731 -1.2371978 102.7599 -1.2376169 102.75851 -23.518301 -32.621628
36000000000 -25.34602 39.386234 -1.2343451 102.68603 -1.2367812 102.66499 -23.566977 -32.610691
36010000000 -25.418306 39.394814 -1.2335513 102.60425 -1.2384803 102.59414 -23.664143 -32.56641
36020000000 -25.450703 39.719299 -1.2316628 102.53807 -1.2371144 102.51589 -23.814114 -32.732151
36030000000 -25.509274 40.30444 -1.2299396 102.43662 -1.237282 102.42767 -24.007809 -33.488461
36040000000 -25.636065 39.769577 -1.2288748 102.34184 -1.240428 102.37597 -24.061796 -34.270573
36050000000 -25.616802 40.467903 -1.2322367 102.30154 -1.235538 102.28725 -24.084873 -35.807777
36060000000 -25.657974 40.175385 -1.2279955 102.21929 -1.2340592 102.21767 -24.158184 -36.828659
36070000000 -25.696325 40.512688 -1.2280107 102.15723 -1.2330077 102.15608 -24.050756 -37.825905
36080000000 -25.794941 41.021919 -1.2298983 102.08935 -1.2335647 102.05347 -24.024841 -38.546291
36090000000 -25.862417 41.001862 -1.2248077 102.00347 -1.2318807 101.99304 -23.941177 -39.598518
36100000000 -25.862732 41.381992 -1.2259881 101.92859 -1.2303023 101.91422 -23.877306 -40.332493
36110000000 -25.988256 41.680408 -1.2316517 101.8742 -1.2337264 101.85641 -23.815149 -40.436577
36120000000 -26.030411 42.118889 -1.2295674 101.77798 -1.2300615 101.79238 -23.785873 -39.962242
36130000000 -26.130331 42.05891 -1.2284636 101.69211 -1.2327033 101.69817 -23.924845 -40.037403
36140000000 -26.22057 42.002159 -1.2254939 101.6058 -1.2334784 101.61065 -23.919188 -40.358383
36150000000 -26.356016 42.243874 -1.2274673 101.5257 -1.2298942 101.52587 -23.949005 -40.289261
36160000000 -26.366602 42.586323 -1.2262157 101.47478 -1.2300829 101.4506 -23.975857 -40.914707
36170000000 -26.410194 42.50597 -1.2249564 101.37891 -1.2308584 101.3848 -24.142944 -41.490032
36180000000 -26.416996 42.660889 -1.2267352 101.33611 -1.23164 101.29301 -24.201014 -42.830509
36190000000 -26.388351 42.319477 -1.2272022 101.2398 -1.2304024 101.23796 -24.168137 -43.79121
36200000000 -26.447941 42.885235 -1.2222074 101.15632 -1.22859 101.17136 -24.093391 -44.659172
36210000000 -26.517651 43.242336 -1.2233672 101.10043 -1.2316703 101.10176 -23.95998 -45.541458
36220000000 -26.581699 43.386112 -1.2241187 101.02908 -1.2265917 101.04053 -23.83268 -46.144482
36230000000 -26.604883 43.52491 -1.2272956 100.97202 -1.2276126 100.96288 -23.643818 -46.133209
36240000000 -26.551483 44.019169 -1.2236723 100.90211 -1.2279416 100.89546 -23.523794 -46.457428
36250000000 -26.68466 43.885586 -1.2228485 100.83337 -1.2292655 100.79758 -23.465294 -46.169949
36260000000 -26.748047 43.910828 -1.2210037 100.75063 -1.2258402 100.74162 -23.366013 -45.159126
36270000000 -26.866472 44.019123 -1.223065 100.67856 -1.2270604 100.65596 -23.361015 -44.393108
36280000000 -26.936024 44.133633 -1.224538 100.60981 -1.2285953 100.59548 -23.425615 -43.622871
36290000000 -26.961273 44.11581 -1.222596 100.50044 -1.2310915 100.52708 -23.538465 -43.51722
36300000000 -27.130886 44.359795 -1.224757 100.41242 -1.2292689 100.43693 -23.72687 -42.851089
36310000000 -27.170116 44.259285 -1.2265745 100.37955 -1.2287178 100.3455 -23.928896 -42.775322
36320000000 -27.20307 43.955521 -1.2247072 100.2853 -1.2297468 100.28296 -24.094305 -43.518967
36330000000 -27.249189 44.446041 -1.2228142 100.19941 -1.2279121 100.19477 -24.352652 -44.323326
36340000000 -27.340469 45.112309 -1.2253016 100.113 -1.2296417 100.10363 -24.400709 -45.0075
36350000000 -27.417751 45.778866 -1.2271191 100.05136 -1.2279632 100.01378 -24.507048 -46.601902
36360000000 -27.435778 45.836819 -1.22118 99.961639 -1.2274024 99.938255 -24.555725 -47.994102
36370000000 -27.484539 46.327198 -1.2261052 99.87365 -1.2293211 99.853584 -24.521574 -48.767063
36380000000 -27.529142 47.845768 -1.225024 99.777298 -1.2303388 99.770447 -24.413078 -49.605869
36390000000 -27.545984 47.444107 -1.2251396 99.708298 -1.2278997 99.713577 -24.343037 -50.298077
36400000000 -27.618099 48.107292 -1.2235731 99.615906 -1.2289078 99.641869 -24.317358 -51.207932
36410000000 -27.665148 48.753746 -1.2199662 99.564804 -1.226692 99.567261 -24.199713 -51.54372
36420000000 -27.702965 49.247547 -1.2221066 99.480125 -1.2261039 99.483101 -24.238983 -51.375954
36430000000 -27.762865 49.456497 -1.2197735 99.446724 -1.2279536 99.418152 -24.275345 -51.426109
36440000000 -27.779421 50.887596 -1.221275 99.336647 -1.2246125 99.337906 -24.414257 -51.815407
36450000000 -27.7913 51.360714 -1.2236942 99.277847 -1.224725 99.261978 -24.442808 -52.664238
36460000000 -27.934891 52.966465 -1.2236863 99.181335 -1.2257874 99.188286 -24.49951 -53.18539
36470000000 -28.062422 53.744736 -1.2217149 99.103287 -1.2259016 99.082321 -24.594702 -54.231438
36480000000 -28.178988 54.692307 -1.2201613 99.020317 -1.2265522 99.029724 -24.570713 -55.720463
36490000000 -28.345303 56.460861 -1.2230769 98.943413 -1.2274525 98.951263 -24.485704 -56.566467
36500000000 -28.484278 57.222355 -1.2178177 98.877525 -1.223561 98.859451 -24.440586 -57.716793
36510000000 -28.795378 57.507935 -1.2195401 98.776039 -1.2251438 98.784363 -24.273836 -58.590858
36520000000 -28.895403 57.11874 -1.2181343 98.739548 -1.2224407 98.725525 -24.215899 -58.970303
36530000000 -29.19873 57.8619 -1.2184683 98.657829 -1.2197382 98.63916 -24.058615 -58.698605
36540000000 -29.288078 57.128235 -1.2171259 98.605408 -1.2211837 98.578568 -23.935801 -58.584309
36550000000 -29.468403 57.85891 -1.2143494 98.499718 -1.2204733 98.516548 -23.884529 -57.958023
36560000000 -29.653912 56.224258 -1.2150469 98.445976 -1.2200056 98.459 -23.954329 -57.448742
36570000000 -29.758322 56.223057 -1.2140334 98.370224 -1.2176586 98.387451 -24.007723 -56.815376
36580000000 -29.77755 55.410583 -1.214915 98.313004 -1.2192988 98.323051 -24.086121 -56.276085
36590000000 -29.868595 55.268303 -1.2151191 98.221649 -1.218031 98.216713 -24.222725 -56.512325
36600000000 -29.86397 55.434811 -1.2193897 98.146126 -1.2223114 98.143394 -24.325901 -56.947559
36610000000 -29.922314 55.415176 -1.2186891 98.08918 -1.2228752 98.081444 -24.483572 -57.39053
36620000000 -30.078894 55.490551 -1.2178813 98.005234 -1.2212211 97.982811 -24.518816 -58.102379
36630000000 -30.130514 55.763046 -1.2163277 97.91774 -1.2225546 97.930443 -24.559565 -59.528923
36640000000 -30.344236 56.156281 -1.2176658 97.833237 -1.223546 97.833176 -24.489254 -60.578247
36650000000 -30.330204 55.434971 -1.2142015 97.762688 -1.223004 97.754036 -24.369041 -61.141785
36660000000 -30.471514 55.297878 -1.2126676 97.690811 -1.2195582 97.667664 -24.218594 -62.157188
36670000000 -30.553585 54.738186 -1.213601 97.603783 -1.2150226 97.619164 -24.074972 -62.109268
36680000000 -30.553253 54.219933 -1.2098581 97.558029 -1.2129979 97.548241 -23.988852 -62.082241
36690000000 -30.41164 54.141567 -1.2100211 97.495682 -1.2167093 97.460548 -23.857195 -61.468235
36700000000 -30.453705 55.143833 -1.2100151 97.416031 -1.2145038 97.415154 -23.703688 -60.404671
36710000000 -30.424879 55.608406 -1.2120831 97.348854 -1.2133658 97.339607 -23.784344 -60.028881
36720000000 -30.553965 56.324799 -1.2104868 97.250023 -1.2136345 97.236145 -23.870556 -59.209755
36730000000 -30.579227 57.073555 -1.2137817 97.215385 -1.2179424 97.201172 -24.060072 -59.096996
36740000000 -30.777609 58.22924 -1.2159872 97.100761 -1.2173301 97.119125 -24.258743 -58.694221
36750000000 -30.9664 58.692997 -1.2139304 97.026695 -1.2199018 97.019287 -24.392469 -59.153511
36760000000 -31.138668 60.515381 -1.215093 96.948143 -1.2204404 96.944878 -24.58099 -59.434818
36770000000 -31.463392 60.14978 -1.2152376 96.856895 -1.2179102 96.855705 -24.733488 -60.498524
36780000000 -31.652557 60.903431 -1.2160918 96.765678 -1.2200841 96.763504 -24.861158 -61.910522
36790000000 -32.00679 61.437355 -1.2127552 96.678276 -1.2176597 96.692604 -24.914675 -62.800354
36800000000 -32.260624 59.921242 -1.2137424 96.620934 -1.21707 96.593704 -24.925486 -64.49575
36810000000 -32.272511 58.046009 -1.2117734 96.553154 -1.2182884 96.53672 -24.836226 -65.653618
36820000000 -32.108448 57.915771 -1.2165414 96.4478 -1.2169241 96.45224 -24.801838 -66.435951
36830000000 -32.247955 57.450634 -1.2123442 96.364334 -1.2135702 96.393303 -24.666065 -66.974342
36840000000 -31.929403 57.6633 -1.2125551 96.335793 -1.2138799 96.299454 -24.455887 -67.859085
36850000000 -31.766188 57.399826 -1.2124503 96.219284 -1.2165836 96.240906 -24.347448 -67.439674
36860000000 -31.738789 59.240158 -1.2145689 96.163445 -1.2187884 96.14785 -24.261509 -67.435623
36870000000 -31.713163 60.510818 -1.2104923 96.108513 -1.2164832 96.077728 -24.187353 -67.369362
36880000000 -31.898479 61.271572 -1.2115575 96.035522 -1.2184855 96.017143 -24.100597 -67.36702
36890000000 -31.919714 62.604027 -1.2125221 95.950195 -1.2175572 95.926445 -24.101849 -67.027596
36900000000 -32.100105 63.434978 -1.2121663 95.860802 -1.2169961 95.840881 -24.106989 -66.898956
36910000000 -32.422535 63.978752 -1.2099836 95.760803 -1.2189457 95.777901 -24.134441 -67.041946
36920000000 -32.680897 62.972904 -1.2099234 95.720146 -1.2142521 95.701118 -24.066612 -66.949219
36930000000 -32.964832 61.989037 -1.2080549 95.622612 -1.2107515 95.649406 -24.100288 -67.250748
36940000000 -33.133068 61.306343 -1.2043314 95.561646 -1.2134832 95.540291 -24.119629 -67.384171
36950000000 -33.002621 59.314537 -1.2043493 95.468735 -1.2121105 95.468796 -24.061703 -68.119743
36960000000 -32.869553 58.017532 -1.2084385 95.435799 -1.2100749 95.440163 -24.010679 -68.264336
36970000000 -32.573757 56.8587 -1.210222 95.338333 -1.2116892 95.355232 -23.966545 -68.75045
36980000000 -32.187809 56.889297 -1.2105408 95.268967 -1.2106065 95.274681 -23.91995 -68.913963
36990000000 -31.779749 58.154026 -1.2081938 95.217461 -1.2121232 95.231606 -23.731997 -68.804604
37000000000 -31.397835 59.790035 -1.2056898 95.139961 -1.2120502 95.143242 -23.5958 -68.591614
37010000000 -31.249615 62.011864 -1.2118669 95.035812 -1.2152612 95.068024 -23.618671 -68.312592
37020000000 -31.310192 65.30645 -1.2098246 94.965233 -1.2169824 94.986984 -23.574581 -67.661095
37030000000 -31.352722 67.818382 -1.2099375 94.889481 -1.2161578 94.919846 -23.560076 -67.618271
37040000000 -31.536896 71.062897 -1.2110094 94.81575 -1.2133145 94.831642 -23.552977 -66.661781
37050000000 -31.663025 72.930626 -1.2130786 94.749107 -1.2161345 94.762215 -23.589088 -66.321938
37060000000 -32.143204 75.349274 -1.2109061 94.665146 -1.2145301 94.642807 -23.677584 -66.443161
37070000000 -32.747528 77.816406 -1.2073917 94.579117 -1.2144438 94.570267 -23.862938 -65.862785
37080000000 -33.187096 78.315208 -1.2087846 94.479942 -1.212352 94.500229 -23.933533 -66.050491
37090000000 -33.918804 78.748695 -1.2070479 94.409973 -1.2135565 94.404045 -24.133158 -66.713242
37100000000 -34.249657 78.620705 -1.2077869 94.32711 -1.2157389 94.364395 -24.220432 -67.363358
37110000000 -34.624393 76.748291 -1.2092223 94.236633 -1.2135651 94.249893 -24.316067 -67.909096
37120000000 -34.906502 77.672485 -1.2058196 94.199211 -1.2136886 94.197624 -24.313696 -68.477913
37130000000 -34.920033 77.271675 -1.2084601 94.085991 -1.2120132 94.113213 -24.407099 -69.649834
37140000000 -34.897808 78.059219 -1.2019615 94.025108 -1.2091764 94.009987 -24.382572 -69.897766
37150000000 -34.928623 78.785522 -1.205345 93.931763 -1.2116222 93.927193 -24.396244 -70.398293
37160000000 -34.747208 81.106972 -1.2099692 93.857605 -1.2132149 93.85511 -24.404343 -70.398392
37170000000 -34.773888 83.129517 -1.2086195 93.786537 -1.2144103 93.778709 -24.373674 -71.171005
37180000000 -35.190533 86.237785 -1.2082368 93.691055 -1.2088428 93.694572 -24.486469 -70.936249
37190000000 -35.529697 89.416115 -1.2055552 93.593178 -1.2086622 93.620178 -24.478285 -70.854515
37200000000 -35.725269 90.113968 -1.2050246 93.521675 -1.2103219 93.539864 -24.561178 -70.934486
37210000000 -36.46891 91.205597 -1.2046146 93.432686 -1.2090582 93.45417 -24.686174 -71.439011
37220000000 -37.057957 93.659981 -1.2034899 93.347107 -1.2045579 93.336143 -24.664114 -72.38176
37230000000 -37.88826 91.589172 -1.2027663 93.285019 -1.211189 93.305206 -24.75164 -73.065468
37240000000 -37.729614 92.690361 -1.2025764 93.176529 -1.2102008 93.189857 -24.767174 -74.101501
37250000000 -38.409695 89.203064 -1.2051913 93.114517 -1.2075859 93.150627 -24.684145 -75.508286
37260000000 -38.508579 86.095078 -1.202107 93.055656 -1.2090613 93.028481 -24.615362 -76.610954
37270000000 -38.525192 82.230637 -1.2043092 92.942787 -1.2080454 92.93914 -24.444414 -77.483131
37280000000 -37.997631 80.529037 -1.202531 92.863586 -1.2066405 92.88929 -24.220665 -77.681564
37290000000 -37.682667 78.293465 -1.1988951 92.797646 -1.2059311 92.795525 -24.032999 -77.643921
37300000000 -37.546848 78.862144 -1.2002262 92.732246 -1.2026557 92.736488 -23.766687 -77.211197
37310000000 -37.057018 81.608887 -1.2039506 92.644363 -1.2082092 92.656937 -23.668821 -76.319542
37320000000 -36.874908 82.775581 -1.1977032 92.543556 -1.2041856 92.57962 -23.530502 -75.482605
37330000000 -36.696545 83.301079 -1.1992183 92.505432 -1.2066419 92.501396 -23.475523 -74.244263
37340000000 -37.068619 82.492958 -1.2009852 92.444992 -1.2037679 92.445389 -23.468861 -73.423004
37350000000 -37.042164 85.284798 -1.2002962 92.360245 -1.2036654 92.352448 -23.524492 -72.317963
37360000000 -37.3685 83.848335 -1.199543 92.319237 -1.2109841 92.304138 -23.511524 -72.002151
37370000000 -37.845131 85.182846 -1.2025297 92.221069 -1.2040395 92.229828 -23.633709 -71.032173
37380000000 -38.211014 82.993958 -1.2017987 92.156319 -1.2070804 92.150887 -23.773834 -70.992867
37390000000 -38.242062 81.971497 -1.2063394 92.105789 -1.2046225 92.075523 -23.772606 -70.819839
37400000000 -38.786514 82.921104 -1.202264 91.978676 -1.2074468 92.007515 -23.937859 -70.863838
37410000000 -38.495995 80.243759 -1.2017519 91.91832 -1.2068036 91.92878 -23.948112 -71.361855
37420000000 -38.82262 82.884628 -1.2017853 91.823677 -1.2042273 91.852234 -23.938601 -71.39595
37430000000 -38.639225 80.853302 -1.2046106 91.773766 -1.208323 91.790581 -23.943853 -71.58094
37440000000 -38.258629 83.346169 -1.2016522 91.712204 -1.2073117 91.702187 -23.940544 -71.37487
37450000000 -38.201015 83.807503 -1.2040371 91.590919 -1.2049491 91.60865 -23.978798 -71.33947
37460000000 -38.418091 86.76535 -1.2009914 91.53286 -1.2057486 91.544701 -23.96423 -70.833092
37470000000 -38.66898 87.074768 -1.202825 91.464005 -1.207378 91.465935 -24.071487 -70.865463
37480000000 -39.120064 91.789597 -1.1975628 91.388489 -1.2052364 91.399284 -24.118307 -70.234795
37490000000 -39.225849 93.858437 -1.2017395 91.311508 -1.2006344 91.314537 -24.212503 -70.693314
37500000000 -39.982475 93.744751 -1.1994468 91.210938 -1.2032559 91.242577 -24.34478 -70.820747
37510000000 -40.665207 94.85894 -1.2036374 91.148643 -1.206622 91.151657 -24.502611 -71.439178
37520000000 -40.806953 95.532379 -1.203607 91.071342 -1.2063391 91.082703 -24.53277 -71.685509
37530000000 -41.096771 94.818573 -1.2000331 90.983047 -1.2063541 90.989517 -24.579784 -73.227509
37540000000 -41.40514 94.651474 -1.2010583 90.899071 -1.205398 90.902267 -24.644188 -74.599937
37550000000 -40.919434 93.21608 -1.2035725 90.828506 -1.205644 90.822433 -24.581657 -75.61319
37560000000 -40.624573 91.593475 -1.2019397 90.742928 -1.2056273 90.737778 -24.507832 -76.74987
37570000000 -40.19099 92.585129 -1.2023216 90.672974 -1.205533 90.671013 -24.390177 -76.968628
37580000000 -39.658821 96.120178 -1.2015754 90.575142 -1.2031467 90.567497 -24.195808 -77.787483
37590000000 -39.522022 96.493179 -1.2004442 90.483536 -1.2043943 90.492287 -24.123266 -77.979385
37600000000 -39.029453 98.078529 -1.2000228 90.415482 -1.2049744 90.417847 -23.966328 -77.935371
37610000000 -38.852783 102.96617 -1.1983398 90.327957 -1.2079176 90.343552 -23.870279 -77.24929
37620000000 -38.917984 103.8186 -1.1989207 90.266205 -1.2016994 90.246758 -23.731005 -76.425163
37630000000 -39.032719 109.07259 -1.1997037 90.181976 -1.2028335 90.177711 -23.650505 -75.268379
37640000000 -39.412498 107.83283 -1.1995106 90.100555 -1.2039653 90.117714 -23.664228 -74.960457
37650000000 -40.308319 112.12561 -1.1977677 90.037621 -1.202898 90.040184 -23.643494 -74.036232
37660000000 -41.021095 113.03725 -1.1970854 89.967758 -1.2037313 89.923958 -23.729662 -74.095665
37670000000 -41.669701 109.34071 -1.1992333 89.875389 -1.2033546 89.891701 -23.753071 -73.546448
37680000000 -42.491161 108.0359 -1.1997707 89.800873 -1.2040431 89.839798 -23.805454 -72.80603
37690000000 -42.61079 105.08013 -1.1948911 89.732605 -1.2032229 89.7286 -23.78981 -72.853317
37700000000 -42.490013 103.42118 -1.1958251 89.65242 -1.1995919 89.63662 -23.768482 -73.023911
37710000000 -42.195454 100.82643 -1.1999962 89.590729 -1.2001432 89.583916 -23.781778 -73.029335
37720000000 -42.227577 102.08057 -1.1949164 89.518272 -1.2025577 89.514481 -23.818266 -73.271278
37730000000 -41.809803 99.624519 -1.2007258 89.420128 -1.2019604 89.444382 -23.891609 -73.051102
37740000000 -41.353306 104.12759 -1.2007228 89.35183 -1.2040951 89.34079 -23.808382 -72.610184
37750000000 -41.534401 113.76537 -1.1943281 89.267105 -1.2002126 89.256615 -23.738794 -72.283653
37760000000 -42.431664 117.07349 -1.1988157 89.218811 -1.2002808 89.210815 -23.796633 -71.735634
37770000000 -42.816597 122.99062 -1.1944947 89.100227 -1.2000692 89.11097 -23.744463 -71.248108
37780000000 -43.685207 128.68355 -1.195727 89.026154 -1.2001675 88.998878 -23.7931 -70.347115
37790000000 -46.145569 136.42203 -1.197588 88.95269 -1.2040517 88.960938 -23.888428 -70.19323
37800000000 -47.517311 140.61076 -1.1928333 88.876404 -1.1990237 88.900032 -23.905237 -68.902786
37810000000 -50.317245 149.3181 -1.1946757 88.833473 -1.1964324 88.834686 -23.940798 -68.44207
37820000000 -53.821274 146.31883 -1.1901859 88.740616 -1.1972265 88.723572 -24.039934 -68.407722
37830000000 -57.444332 133.85046 -1.1915188 88.65229 -1.200591 88.663269 -24.189575 -67.917862
37840000000 -56.931461 105.75014 -1.194672 88.603745 -1.1986669 88.592865 -24.174078 -67.658142
37850000000 -55.040134 72.19471 -1.1964228 88.502708 -1.201175 88.509415 -24.346296 -67.788536
37860000000 -55.296898 78.304886 -1.1946058 88.463409 -1.1979356 88.443748 -24.413431 -68.143845
37870000000 -50.650841 75.302269 -1.1969875 88.405701 -1.203131 88.373566 -24.480801 -68.911026
37880000000 -49.623943 92.013969 -1.1962564 88.313637 -1.2019628 88.300377 -24.438047 -69.637901
37890000000 -49.32682 102.2852 -1.1994015 88.222061 -1.2047247 88.2173 -24.549795 -69.884979
37900000000 -49.16745 114.67277 -1.2018738 88.142632 -1.203369 88.145874 -24.487579 -70.665825
37910000000 -48.405552 137.6075 -1.1971682 88.062325 -1.2042058 88.06472 -24.346178 -71.216095
37920000000 -48.369591 140.16681 -1.1996822 87.980545 -1.2085172 87.969536 -24.369581 -71.429794
37930000000 -49.037197 156.19606 -1.1991981 87.872444 -1.2031231 87.879425 -24.276316 -71.212547
37940000000 -49.36586 171.86908 -1.1982013 87.805237 -1.2033095 87.80191 -24.170727 -70.84726
37950000000 -51.900288 -165.92183 -1.199078 87.711708 -1.20486 87.739464 -24.207977 -70.370102
37960000000 -51.004513 -165.79025 -1.1929184 87.6577 -1.2009108 87.656914 -24.113811 -69.753395
37970000000 -52.403709 -161.3045 -1.1927682 87.560905 -1.1977518 87.574097 -24.107761 -69.761726
37980000000 -53.734489 -161.0108 -1.1965548 87.492508 -1.1965739 87.498772 -24.203381 -68.515373
37990000000 -54.38195 -159.61678 -1.1926987 87.425827 -1.194975 87.421501 -24.241087 -68.305687
38000000000 -53.858158 174.06372 -1.1908959 87.327805 -1.1975685 87.340233 -24.368036 -68.184265
38010000000 -54.408638 167.75024 -1.1929188 87.307755 -1.1969159 87.275589 -24.497023 -68.308823
38020000000 -51.511883 170.4247 -1.1958183 87.197021 -1.2016912 87.178032 -24.586792 -67.827087
38030000000 -49.334057 167.92726 -1.1937903 87.146019 -1.197705 87.1036 -24.689575 -68.569084
38040000000 -47.36861 175.06114 -1.1984555 87.028786 -1.2027916 87.054947 -24.775652 -68.662483
38050000000 -46.027054 -174.78535 -1.1985984 86.935219 -1.2014668 86.952034 -24.781113 -69.335587
38060000000 -45.572392 -156.30261 -1.1969302 86.867172 -1.2035172 86.862526 -24.784643 -69.721077
38070000000 -44.673187 -152.21178 -1.2001736 86.737091 -1.2035373 86.763763 -24.698887 -70.067261
38080000000 -44.496025 -140.96553 -1.1932366 86.636902 -1.199208 86.675674 -24.51688 -70.40995
38090000000 -45.432259 -134.17892 -1.1985936 86.577538 -1.2009876 86.582619 -24.488199 -70.267723
38100000000 -44.732132 -118.61407 -1.193992 86.50502 -1.1976664 86.528336 -24.329767 -69.671074
38110000000 -44.649536 -103.30957 -1.192202 86.446243 -1.195473 86.450378 -24.2757 -68.577385
38120000000 -45.512058 -92.39447 -1.194749 86.380241 -1.1967041 86.381157 -24.19907 -67.492508
38130000000 -46.541702 -90.465508 -1.1907022 86.265373 -1.1983179 86.292313 -24.260927 -66.90786
38140000000 -46.957253 -84.449715 -1.1904597 86.223663 -1.1956253 86.23806 -24.316383 -66.00425
38150000000 -49.049076 -74.317276 -1.1951932 86.14959 -1.1974069 86.169029 -24.391193 -65.800011
38160000000 -49.558971 -88.896698 -1.1954995 86.076591 -1.1979666 86.097893 -24.453276 -65.121391
38170000000 -49.976337 -103.03929 -1.1954447 86.013161 -1.1994609 86.014343 -24.614468 -64.597618
38180000000 -48.196465 -98.03083 -1.1932802 85.96022 -1.1994731 85.978432 -24.69099 -64.933197
38190000000 -47.986656 -113.34956 -1.196087 85.864441 -1.1994809 85.845108 -24.745985 -64.894699
38200000000 -46.606716 -108.21804 -1.2010698 85.774391 -1.2031364 85.781914 -24.854952 -65.489182
38210000000 -46.117001 -111.70148 -1.196684 85.66198 -1.2006027 85.691513 -24.817736 -66.676941
38220000000 -43.985859 -104.7972 -1.1944474 85.613274 -1.2021888 85.624451 -24.721018 -67.279999
38230000000 -43.332104 -97.965469 -1.1958687 85.520065 -1.2000074 85.533485 -24.675125 -67.171349
38240000000 -43.40723 -96.095772 -1.1953175 85.424034 -1.2015679 85.429474 -24.487265 -67.109467
38250000000 -43.149132 -89.5364 -1.1917295 85.345665 -1.1949944 85.358391 -24.393698 -66.403236
38260000000 -43.475067 -81.775734 -1.1906807 85.305748 -1.1967835 85.25679 -24.364889 -66.470299
38270000000 -44.398479 -72.596077 -1.1913863 85.209 -1.1938466 85.213882 -24.264479 -65.772934
38280000000 -44.883888 -72.203735 -1.1942569 85.14502 -1.1978742 85.147491 -24.260534 -64.611183
38290000000 -45.580681 -74.02417 -1.1930053 85.093513 -1.1951274 85.080658 -24.263025 -63.978573
38300000000 -47.156647 -74.026894 -1.1986243 85.015244 -1.1965786 85.01712 -24.356462 -63.657707
38310000000 -46.830982 -90.830109 -1.1970986 84.961609 -1.2017864 84.991623 -24.382397 -62.725842
38320000000 -46.692768 -101.06853 -1.2003678 84.86367 -1.2025068 84.891663 -24.480839 -62.916157
38330000000 -45.238659 -110.38199 -1.1971378 84.80101 -1.2009808 84.784164 -24.638592 -62.884254
38340000000 -43.471527 -113.54724 -1.1930622 84.671799 -1.2063165 84.707222 -24.692827 -62.76136
38350000000 -41.916969 -115.72588 -1.1939443 84.598297 -1.2004026 84.632195 -24.683401 -63.164921
38360000000 -40.637974 -112.55036 -1.1968728 84.52066 -1.2011958 84.530342 -24.74246 -63.382305
38370000000 -39.443043 -109.7785 -1.1957805 84.428223 -1.1982422 84.431221 -24.779528 -63.205658
38380000000 -39.483112 -106.38522 -1.2012768 84.353134 -1.2016393 84.360161 -24.78718 -63.471294
38390000000 -39.313641 -101.92173 -1.1964695 84.287445 -1.1987344 84.277107 -24.781956 -63.248135
38400000000 -39.315083 -98.855865 -1.1960024 84.209702 -1.1987638 84.215561 -24.855339 -63.37014
38410000000 -39.52121 -100.20333 -1.1941396 84.137192 -1.1990838 84.120506 -24.865282 -62.968681
38420000000 -39.894344 -98.861458 -1.195067 84.070435 -1.1970949 84.078697 -24.898769 -63.276295
38430000000 -40.243599 -98.91877 -1.1950834 83.965034 -1.2021456 84.00663 -24.9953 -63.367893
38440000000 -39.440254 -100.74583 -1.1957399 83.856987 -1.2018011 83.908188 -25.065067 -63.646263
38450000000 -39.410168 -106.05765 -1.1958122 83.82103 -1.2027239 83.825035 -25.066853 -63.997131
38460000000 -38.666073 -106.29125 -1.2015443 83.720551 -1.2001207 83.743973 -24.995813 -64.12883
38470000000 -38.226486 -108.88641 -1.1984441 83.642754 -1.2001194 83.680603 -25.010471 -65.105606
38480000000 -37.146336 -105.72376 -1.2023145 83.555084 -1.2030138 83.562927 -24.759069 -65.650841
38490000000 -36.657967 -105.12737 -1.2044227 83.42498 -1.2024835 83.449417 -24.689814 -65.789581
38500000000 -35.828796 -99.735863 -1.1970352 83.389503 -1.2057284 83.394615 -24.490675 -65.005882
38510000000 -35.239864 -96.259712 -1.1982282 83.304543 -1.2001102 83.282639 -24.180891 -64.212189
38520000000 -35.145378 -92.548164 -1.1981109 83.182022 -1.20456 83.210854 -23.992556 -62.853882
38530000000 -34.749222 -86.856842 -1.1990933 83.12188 -1.2020479 83.141823 -23.896008 -61.31889
38540000000 -34.657761 -83.597015 -1.1939511 83.017845 -1.1984953 83.055832 -23.860636 -58.863136
38550000000 -34.582088 -79.247665 -1.1921192 82.966934 -1.1973803 82.971848 -23.774351 -58.024929
38560000000 -34.682396 -75.221573 -1.1959649 82.903015 -1.1975601 82.91008 -23.771927 -55.653214
38570000000 -34.87336 -73.435196 -1.1956325 82.842125 -1.1937689 82.837578 -23.966381 -54.350414
38580000000 -35.205708 -72.456192 -1.1876042 82.779243 -1.1948997 82.753525 -24.242594 -52.623116
38590000000 -34.991032 -72.751991 -1.187935 82.683632 -1.1972415 82.701675 -24.324411 -51.7854
38600000000 -34.953575 -74.452362 -1.1866782 82.623802 -1.194353 82.620728 -24.467081 -51.314598
38610000000 -35.14645 -75.583748 -1.1904634 82.558678 -1.1919404 82.574921 -24.647535 -51.479828
38620000000 -34.949787 -79.487389 -1.1895064 82.477776 -1.195848 82.474457 -24.815046 -51.867424
38630000000 -34.196743 -80.098633 -1.1908042 82.371704 -1.1928813 82.410553 -25.009058 -52.143768
38640000000 -33.943043 -78.384125 -1.1921046 82.315918 -1.1975212 82.340019 -25.031136 -52.585617
38650000000 -33.721943 -79.097244 -1.1890054 82.2173 -1.1905482 82.260841 -25.03079 -53.344166
38660000000 -33.394913 -76.959969 -1.1911718 82.137955 -1.1957808 82.163399 -25.107397 -52.799507
38670000000 -33.651062 -74.511398 -1.1920419 82.052902 -1.191419 82.087318 -25.044624 -53.370247
38680000000 -33.492229 -71.658379 -1.1911567 81.988762 -1.1962045 81.99295 -25.143826 -53.000759
38690000000 -33.692646 -70.285049 -1.1920151 81.945663 -1.1969919 81.940514 -25.080158 -53.627533
38700000000 -33.914337 -68.06823 -1.1900975 81.825371 -1.194157 81.844688 -25.11698 -53.423695
38710000000 -34.277439 -66.675659 -1.1856818 81.778809 -1.1967965 81.788788 -25.233595 -53.776894
38720000000 -34.921162 -67.587006 -1.1882783 81.680939 -1.1942712 81.700043 -25.374348 -54.598778
38730000000 -35.266468 -71.342567 -1.1896412 81.613724 -1.1957467 81.658012 -25.395447 -55.166344
38740000000 -35.493382 -73.217018 -1.1920123 81.519302 -1.202431 81.55809 -25.422045 -55.518433
38750000000 -35.406528 -79.599457 -1.1934762 81.401535 -1.1977862 81.452553 -25.332129 -57.073605
38760000000 -35.112354 -78.743774 -1.1935508 81.356194 -1.1968896 81.355576 -25.170395 -57.995335
38770000000 -34.728912 -82.896515 -1.1968251 81.279945 -1.2005364 81.252747 -25.147388 -59.108261
38780000000 -34.149265 -81.681976 -1.2002381 81.175034 -1.2022101 81.189156 -25.03204 -59.343826
38790000000 -33.670433 -81.474533 -1.1918315 81.068703 -1.2017994 81.111916 -24.671125 -59.889088
38800000000 -33.545845 -79.730225 -1.1980833 80.980194 -1.2027857 81.009132 -24.658117 -59.742081
38810000000 -33.000832 -75.854881 -1.202135 80.884857 -1.2051544 80.89888 -24.321264 -58.164295
38820000000 -32.864883 -74.665131 -1.1979744 80.812225 -1.2004524 80.829178 -24.157993 -58.066307
38830000000 -32.850079 -72.119118 -1.1962326 80.768311 -1.2043554 80.734573 -24.056271 -56.90102
38840000000 -32.823051 -69.467621 -1.1929893 80.659935 -1.200521 80.690804 -23.862518 -56.436161
38850000000 -32.817028 -66.21489 -1.1958872 80.581238 -1.2030053 80.60408 -23.725357 -54.564915
38860000000 -32.894279 -64.083237 -1.1987228 80.460518 -1.2000474 80.496483 -23.673124 -53.934998
38870000000 -32.918438 -64.492981 -1.1971692 80.421616 -1.1986318 80.389687 -23.659113 -52.231262
38880000000 -32.716751 -65.101723 -1.1946491 80.352371 -1.1987491 80.35009 -23.608942 -50.765556
38890000000 -32.688301 -65.825989 -1.1970438 80.216568 -1.2010989 80.251129 -23.586212 -50.684685
38900000000 -32.474823 -65.969437 -1.1956806 80.15612 -1.2035192 80.203056 -23.611691 -48.569191
38910000000 -32.193871 -66.198532 -1.1968579 80.076698 -1.2001853 80.118683 -23.588289 -47.66116
38920000000 -31.998228 -67.720406 -1.1923209 80.012306 -1.1947061 80.061844 -23.632956 -45.665012
38930000000 -32.003067 -66.949341 -1.188697 79.965134 -1.1964456 79.974083 -23.741678 -44.908699
38940000000 -31.692543 -68.234604 -1.1974769 79.889084 -1.1993055 79.852661 -23.774927 -42.865311
38950000000 -31.469435 -66.920776 -1.1932162 79.803505 -1.1994977 79.825951 -23.889482 -41.781113
38960000000 -31.540684 -68.031021 -1.1976904 79.770607 -1.198222 79.787804 -24.119478 -41.149677
38970000000 -31.513494 -66.278343 -1.1922821 79.70298 -1.1956011 79.713959 -24.422838 -40.518486
38980000000 -31.549681 -66.635651 -1.194932 79.624947 -1.1974261 79.630081 -24.60313 -40.146942
38990000000 -31.736542 -68.178391 -1.1966646 79.507111 -1.1972865 79.552078 -24.940392 -40.220181
39000000000 -31.741011 -71.307747 -1.1902452 79.453865 -1.1992848 79.485115 -25.004753 -41.477161
39010000000 -31.628275 -72.875572 -1.192252 79.376823 -1.1972405 79.410973 -25.17762 -42.0681
39020000000 -31.392035 -74.202904 -1.1945407 79.319206 -1.2009224 79.317993 -25.220848 -43.265045
39030000000 -31.242769 -75.43058 -1.2005336 79.230042 -1.2032782 79.255882 -25.170609 -43.691212
39040000000 -30.7707 -76.455147 -1.1985834 79.135864 -1.2005767 79.183304 -25.15521 -45.012638
39050000000 -30.517902 -77.484962 -1.1962523 79.066475 -1.2049915 79.083862 -25.090088 -44.885574
39060000000 -30.094013 -76.935265 -1.2021366 78.97187 -1.2012593 78.96682 -24.857578 -45.234013
39070000000 -29.71104 -75.862762 -1.1956755 78.899429 -1.1994448 78.892265 -24.839176 -44.554111
39080000000 -29.547789 -74.125671 -1.1999788 78.818558 -1.2022637 78.823441 -24.767311 -44.031803
39090000000 -29.470568 -73.410851 -1.1952361 78.741409 -1.1978421 78.740295 -24.868755 -44.428925
39100000000 -29.366972 -71.197502 -1.1973158 78.625999 -1.2018249 78.652283 -24.827877 -43.746841
39110000000 -29.271603 -70.873528 -1.1942692 78.551369 -1.1985881 78.561913 -24.83902 -42.776615
39120000000 -29.366674 -69.597099 -1.1951365 78.467308 -1.2018123 78.49218 -24.939703 -43.55024
39130000000 -29.183132 -68.989166 -1.1959096 78.392365 -1.2023572 78.401924 -25.010254 -43.60294
39140000000 -29.367416 -67.525726 -1.1983917 78.30294 -1.199597 78.336327 -24.9149 -44.638336
39150000000 -29.467772 -67.26844 -1.1986519 78.238533 -1.2020503 78.257187 -24.848343 -45.230698
39160000000 -29.377325 -67.963181 -1.200359 78.139717 -1.1983827 78.138161 -24.703424 -45.922745
39170000000 -29.288435 -67.822098 -1.1920974 78.084435 -1.1948192 78.07589 -24.549906 -46.53727
39180000000 -29.155727 -66.275948 -1.2013094 77.979324 -1.2045976 77.978737 -24.36063 -46.049793
39190000000 -29.028343 -66.657562 -1.1977276 77.933556 -1.1996921 77.920898 -24.177034 -46.06741
39200000000 -28.953959 -65.919319 -1.2014921 77.815407 -1.198058 77.842812 -23.917381 -45.180256
39210000000 -28.812517 -65.767334 -1.1951917 77.736565 -1.203802 77.727097 -23.756992 -44.027939
39220000000 -28.691862 -63.532673 -1.1937852 77.645172 -1.2025883 77.690613 -23.644436 -42.584667
39230000000 -28.502506 -63.413548 -1.1988454 77.587357 -1.197044 77.552383 -23.581385 -41.672398
39240000000 -28.617588 -62.859791 -1.1988819 77.483269 -1.1960293 77.487656 -23.610342 -40.327965
39250000000 -28.402452 -62.438416 -1.1940657 77.399017 -1.1954511 77.401497 -23.706406 -38.630928
39260000000 -28.424889 -61.363575 -1.1944098 77.307472 -1.2002187 77.293907 -23.704973 -38.479843
39270000000 -28.277525 -60.802296 -1.1957719 77.240372 -1.1967969 77.255974 -23.831226 -37.182934
39280000000 -28.342375 -61.226944 -1.1971549 77.184242 -1.1947145 77.19606 -23.978199 -36.758003
39290000000 -28.404205 -60.765339 -1.1933361 77.112396 -1.1942105 77.110878 -24.06078 -35.969292
39300000000 -28.300449 -61.042618 -1.1954931 77.053062 -1.2002112 77.028557 -24.156834 -36.883312
39310000000 -28.324751 -61.283619 -1.1932397 76.953316 -1.1961842 76.944557 -24.221046 -36.699043
39320000000 -28.38011 -61.070995 -1.1976624 76.891869 -1.200618 76.868088 -24.156578 -37.124634
39330000000 -28.300669 -61.450161 -1.1939805 76.791603 -1.2029244 76.815208 -24.246994 -36.950985
39340000000 -28.291382 -60.390102 -1.1976112 76.724182 -1.2017847 76.752434 -24.206299 -37.10582
39350000000 -28.42218 -60.535969 -1.1959366 76.616463 -1.2011764 76.631546 -24.182976 -36.675823
39360000000 -28.235353 -61.186646 -1.1905482 76.537331 -1.1999702 76.56884 -24.189993 -37.133007
39370000000 -28.188292 -60.764244 -1.193113 76.468109 -1.1977081 76.481659 -24.138973 -35.878147
39380000000 -28.200535 -60.710705 -1.1976702 76.376778 -1.1968457 76.404373 -24.247013 -35.972427
39390000000 -28.182161 -60.359974 -1.1938987 76.348686 -1.1947459 76.301201 -24.270773 -35.442432
39400000000 -28.157326 -60.265839 -1.1942837 76.256264 -1.2005026 76.223068 -24.273954 -35.881622
39410000000 -28.271179 -60.779041 -1.189023 76.164459 -1.2008498 76.134483 -24.317253 -35.810246
39420000000 -28.266266 -60.487282 -1.195426 76.080566 -1.1987641 76.028549 -24.355049 -35.303974
39430000000 -28.257101 -60.7621 -1.1881746 75.986191 -1.2016007 75.986015 -24.447557 -35.748455
39440000000 -28.190292 -61.530148 -1.1998273 75.904129 -1.1997464 75.901436 -24.39641 -35.857193
39450000000 -28.059357 -62.019142 -1.1957692 75.804764 -1.1948724 75.815498 -24.444002 -36.269688
39460000000 -27.863668 -61.47678 -1.1926905 75.718025 -1.1981027 75.734543 -24.343801 -36.741257
39470000000 -27.740793 -61.599434 -1.1940023 75.624161 -1.2034529 75.667427 -24.299717 -37.094765
39480000000 -27.597155 -62.16584 -1.2003242 75.598412 -1.1999133 75.582619 -24.150784 -36.768032
39490000000 -27.40567 -62.205273 -1.2015492 75.522736 -1.2044739 75.496559 -24.07766 -37.298473
39500000000 -27.301119 -62.243385 -1.1976389 75.419228 -1.2014754 75.421928 -23.958416 -36.691601
39510000000 -27.059156 -61.865776 -1.1977626 75.328751 -1.204697 75.353577 -23.818626 -36.253456
39520000000 -27.063482 -60.907722 -1.2012367 75.24408 -1.201673 75.240562 -23.892183 -36.027
39530000000 -26.872002 -59.761719 -1.1998819 75.15728 -1.2031101 75.159973 -23.754837 -35.432957
39540000000 -26.802895 -59.02636 -1.2031894 75.063606 -1.2043728 75.087044 -23.740286 -36.030743
39550000000 -26.780291 -58.711433 -1.1967654 74.995644 -1.2068117 75.009033 -23.534016 -34.927242
39560000000 -26.666269 -58.474583 -1.2010914 74.919556 -1.2044353 74.916634 -23.679424 -35.183147
39570000000 -26.614077 -57.29496 -1.2033263 74.822411 -1.207305 74.833946 -23.556099 -34.61808
39580000000 -26.540659 -57.112206 -1.2030869 74.758125 -1.2062895 74.77401 -23.564137 -34.630619
39590000000 -26.55691 -57.025173 -1.1973838 74.657135 -1.2069854 74.656189 -23.508657 -33.981258
39600000000 -26.451454 -57.186806 -1.201118 74.61937 -1.2073094 74.626884 -23.469023 -33.553669
39610000000 -26.429258 -56.9394 -1.2023965 74.520004 -1.2045641 74.523026 -23.463078 -33.368977
39620000000 -26.396183 -57.028419 -1.1983309 74.449654 -1.2006814 74.451653 -23.439077 -33.040096
39630000000 -26.301828 -55.709633 -1.1976171 74.336723 -1.2072233 74.369423 -23.460157 -31.696596
39640000000 -26.232628 -56.079735 -1.1988447 74.242622 -1.2022172 74.292061 -23.424824 -31.664396
39650000000 -26.197405 -55.540649 -1.198616 74.184952 -1.2023033 74.198997 -23.384195 -31.65415
39660000000 -26.020844 -54.801914 -1.1981463 74.128899 -1.2037743 74.141869 -23.408115 -31.155054
39670000000 -25.988108 -53.869602 -1.1997436 74.021904 -1.2039421 74.037727 -23.458647 -30.963123
39680000000 -25.976137 -53.417633 -1.2000153 73.94664 -1.1986154 73.950493 -23.469639 -30.987495
39690000000 -25.861492 -52.222317 -1.1981775 73.856247 -1.2043991 73.891975 -23.471268 -30.919041
39700000000 -25.915827 -52.385921 -1.1991681 73.811378 -1.2062571 73.808952 -23.535187 -31.466043
39710000000 -26.035892 -51.426949 -1.2048316 73.711319 -1.2032146 73.722099 -23.49337 -31.276932
39720000000 -25.987694 -51.47261 -1.1994526 73.627419 -1.2043031 73.635124 -23.580654 -31.476576
39730000000 -26.13302 -50.906998 -1.2015932 73.553703 -1.2010535 73.565453 -23.504299 -31.939785
39740000000 -26.210524 -51.408226 -1.2012839 73.478195 -1.2034971 73.546951 -23.501488 -32.179428
39750000000 -26.352373 -52.225143 -1.2036602 73.421532 -1.2059748 73.407867 -23.478884 -32.066525
39760000000 -26.360405 -52.388817 -1.2032009 73.340004 -1.2075303 73.358887 -23.38447 -31.963896
39770000000 -26.383358 -54.311901 -1.2001996 73.244698 -1.2081863 73.252457 -23.369501 -31.612854
39780000000 -26.322304 -54.325138 -1.2002409 73.183456 -1.2039756 73.151741 -23.37129 -31.408003
39790000000 -26.340603 -55.019962 -1.1975192 73.095764 -1.2029458 73.087807 -23.301811 -30.882847
39800000000 -26.237394 -55.597469 -1.1978002 73.031189 -1.206254 73.047867 -23.280056 -30.677696
39810000000 -26.001562 -56.014404 -1.2026632 72.920158 -1.2033908 72.927139 -23.331467 -30.258657
39820000000 -25.689533 -56.275288 -1.2002088 72.87516 -1.2038908 72.878044 -23.287903 -29.844576
39830000000 -25.627131 -55.74213 -1.2043964 72.770424 -1.2050653 72.78553 -23.364107 -29.339521
39840000000 -25.515259 -54.611263 -1.2018079 72.717682 -1.2030934 72.696716 -23.40877 -29.262091
39850000000 -25.346378 -54.656441 -1.2051479 72.589851 -1.2072519 72.617348 -23.345825 -29.561432
39860000000 -25.301405 -53.55526 -1.2016212 72.507782 -1.210549 72.520348 -23.346426 -29.880323
39870000000 -25.290716 -53.22797 -1.202938 72.441277 -1.209168 72.411705 -23.301847 -29.538445
39880000000 -25.169924 -52.99419 -1.2000461 72.350082 -1.2043506 72.345032 -23.264812 -30.116928
39890000000 -25.126438 -52.744915 -1.1957393 72.237053 -1.2048001 72.305466 -23.257669 -30.126711
39900000000 -25.093782 -51.765221 -1.2004064 72.161957 -1.2079154 72.192871 -23.080435 -30.389944
39910000000 -25.101973 -52.237228 -1.1970192 72.100716 -1.207376 72.158173 -23.039801 -30.571856
39920000000 -24.976439 -51.661716 -1.2050796 72.036293 -1.206514 72.07782 -23.039263 -30.40708
39930000000 -24.850262 -51.269222 -1.2040285 71.954987 -1.2094535 71.957214 -22.914789 -29.988707
39940000000 -24.718416 -50.775642 -1.2092767 71.903427 -1.2100773 71.874809 -22.885794 -29.992733
39950000000 -24.750778 -49.78587 -1.2033809 71.810226 -1.2100835 71.810974 -22.826622 -29.685276
39960000000 -24.69187 -49.012936 -1.2054086 71.705223 -1.2084923 71.732384 -22.863001 -29.573675
39970000000 -24.688627 -48.562962 -1.2035046 71.677307 -1.2070886 71.659569 -22.930761 -29.716009
39980000000 -24.696484 -47.623852 -1.2049576 71.542526 -1.2114276 71.566872 -22.961342 -29.347816
39990000000 -24.894373 -45.914322 -1.21068 71.450813 -1.2077606 71.486893 -23.030199 -29.462219
40000000000 -24.96349 -45.560188 -1.2075295 71.416351 -1.2114781 71.42083 -23.05035 -29.389399
40010000000 -25.095608 -45.384697 -1.2069129 71.316788 -1.2078003 71.315178 -23.076586 -30.170801
40020000000 -25.275148 -45.626415 -1.2037921 71.246506 -1.2075993 71.254845 -23.126451 -30.497185
40030000000 -25.383888 -45.707966 -1.2081422 71.157326 -1.2097739 71.219231 -23.085869 -30.38909
40040000000 -25.456493 -46.708553 -1.2040858 71.085526 -1.2089343 71.118935 -22.959602 -30.76791
40050000000 -25.512743 -47.05154 -1.2075856 71.007668 -1.2109892 71.042801 -22.849936 -30.927425
40060000000 -25.445236 -47.815228 -1.2082655 70.895065 -1.2139893 70.962776 -22.828749 -31.023321
40070000000 -25.447071 -48.367527 -1.2080135 70.824081 -1.2137876 70.857079 -22.771387 -30.655987
40080000000 -25.357691 -49.816315 -1.2091488 70.760414 -1.2147969 70.762688 -22.670231 -30.868494
40090000000 -25.113682 -49.723995 -1.2091925 70.661789 -1.2131814 70.694016 -22.637035 -30.099691
40100000000 -25.066431 -50.250607 -1.2114946 70.562141 -1.2168049 70.585503 -22.574127 -29.931717
40110000000 -24.922731 -50.330044 -1.2109574 70.482208 -1.2147318 70.501549 -22.597729 -29.13829
40120000000 -24.827105 -50.00959 -1.208761 70.406769 -1.2151653 70.393295 -22.556896 -28.93461
40130000000 -24.705511 -49.560661 -1.2078847 70.282913 -1.2110279 70.324898 -22.592747 -28.742752
40140000000 -24.654831 -49.813999 -1.2109023 70.198608 -1.2144291 70.280205 -22.592411 -28.572317
40150000000 -24.592117 -49.408012 -1.2094866 70.150261 -1.2174976 70.209076 -22.572956 -28.595936
40160000000 -24.627279 -49.623615 -1.2099168 70.064568 -1.2147174 70.093147 -22.603012 -28.86171
40170000000 -24.564781 -49.63208 -1.2109157 69.985962 -1.2162349 70.016922 -22.530939 -28.761353
40180000000 -24.531071 -49.59737 -1.2143689 69.91996 -1.2177601 69.932388 -22.449844 -29.22488
40190000000 -24.423424 -50.033051 -1.216503 69.819366 -1.2203269 69.858856 -22.409056 -29.248735
40200000000 -24.348108 -50.015606 -1.2165703 69.748215 -1.2196536 69.760742 -22.322975 -28.94791
40210000000 -24.209719 -49.657288 -1.2176045 69.648018 -1.2178268 69.67865 -22.182339 -28.550854
40220000000 -24.045719 -49.489456 -1.2180119 69.584099 -1.2194955 69.593117 -22.114695 -28.369711
40230000000 -23.880257 -48.83466 -1.2154694 69.486115 -1.2186171 69.504692 -22.044392 -27.598776
40240000000 -23.746794 -48.244144 -1.22147 69.376183 -1.2216285 69.403671 -21.974333 -27.08507
40250000000 -23.596413 -47.268364 -1.2195354 69.297874 -1.2214437 69.322327 -21.914042 -26.840605
40260000000 -23.572689 -46.93594 -1.2190338 69.234497 -1.2261852 69.256729 -21.893312 -26.704281
40270000000 -23.474726 -45.712803 -1.2201308 69.165375 -1.2213473 69.162979 -21.939482 -25.836121
40280000000 -23.52215 -45.057579 -1.2162338 69.101418 -1.2215986 69.073288 -21.95525 -25.641129
40290000000 -23.591486 -44.233047 -1.2130023 68.983566 -1.2223536 69.024452 -22.028482 -25.721828
40300000000 -23.614546 -43.313629 -1.2180372 68.92189 -1.2192587 68.919563 -22.01 -25.3531
40310000000 -23.694714 -43.165279 -1.2151568 68.848267 -1.2206084 68.852356 -22.111183 -25.318399
40320000000 -23.768074 -42.942913 -1.2149324 68.784485 -1.2240936 68.787529 -22.118088 -25.604876
40330000000 -23.802849 -42.769108 -1.2163147 68.685555 -1.2276974 68.702126 -22.104086 -25.16297
40340000000 -23.909845 -42.592312 -1.2202127 68.627167 -1.2242947 68.643173 -22.101297 -25.863428
40350000000 -23.904936 -42.952847 -1.2194383 68.507034 -1.2215476 68.539711 -22.098625 -26.266932
40360000000 -23.997561 -43.255093 -1.2206515 68.469215 -1.2244388 68.453842 -22.074091 -26.661606
40370000000 -23.974413 -43.437691 -1.2201349 68.37027 -1.2247916 68.394623 -22.004087 -26.542606
40380000000 -23.952969 -43.829575 -1.2256823 68.297455 -1.2250534 68.31041 -22.017389 -26.863964
40390000000 -23.838629 -43.763096 -1.223686 68.232529 -1.228309 68.212837 -21.955671 -26.412638
40400000000 -23.841354 -43.738842 -1.2213517 68.137589 -1.2230519 68.128998 -21.923561 -26.17548
40410000000 -23.878799 -43.82962 -1.2224351 68.04808 -1.2269396 68.03064 -21.936735 -25.719719
40420000000 -23.830446 -43.943718 -1.2192744 67.96199 -1.2224764 67.94545 -21.869284 -25.641977
40430000000 -23.808254 -43.406982 -1.2225779 67.899979 -1.2260077 67.898537 -21.901339 -25.224665
40440000000 -23.854513 -43.441689 -1.2206597 67.79715 -1.2275498 67.817581 -21.90333 -24.957682
40450000000 -23.777525 -43.83614 -1.224664 67.719742 -1.2252663 67.745857 -21.930859 -24.83016
40460000000 -23.794397 -43.868053 -1.2247752 67.63501 -1.2252525 67.656754 -21.914068 -24.535465
40470000000 -23.790421 -43.65485 -1.2268746 67.558464 -1.2314022 67.569221 -21.890699 -24.435677
40480000000 -23.735233 -44.167397 -1.2293664 67.48761 -1.2307426 67.478828 -21.927708 -24.896152
40490000000 -23.635122 -44.358948 -1.2278829 67.378242 -1.2306392 67.384956 -21.867655 -24.924376
40500000000 -23.654724 -44.494785 -1.2281958 67.307632 -1.2305357 67.328125 -21.862646 -25.206558
40510000000 -23.551725 -44.268658 -1.2359602 67.245361 -1.231406 67.234161 -21.832684 -25.316704
40520000000 -23.395954 -43.654877 -1.2312059 67.096634 -1.2323726 67.126579 -21.677088 -25.512344
40530000000 -23.319412 -43.719292 -1.230535 67.028587 -1.2338027 67.068443 -21.64912 -25.648457
40540000000 -23.264528 -43.384258 -1.2278736 66.974228 -1.2315823 66.957344 -21.619598 -25.681421
40550000000 -23.241777 -43.086971 -1.2273396 66.878944 -1.2342329 66.886009 -21.496321 -25.35112
40560000000 -23.186188 -42.790833 -1.229655 66.779015 -1.2323385 66.795929 -21.412828 -25.123066
40570000000 -23.157415 -42.195969 -1.230314 66.711884 -1.2363604 66.68734 -21.34421 -24.505335
40580000000 -23.135094 -42.115715 -1.2290878 66.630867 -1.2355291 66.609406 -21.292429 -24.105286
40590000000 -23.19113 -41.496048 -1.2330912 66.540329 -1.2339667 66.548347 -21.230631 -23.626444
40600000000 -23.251484 -41.590527 -1.2326692 66.443542 -1.237525 66.444336 -21.211349 -23.157192
40610000000 -23.18984 -41.961594 -1.233619 66.384766 -1.2369995 66.375023 -21.23016 -22.686302
40620000000 -23.20784 -42.121777 -1.229923 66.277466 -1.2332573 66.291145 -21.214174 -21.913284
40630000000 -23.206938 -42.353951 -1.2316197 66.218781 -1.2373585 66.228073 -21.209101 -21.449257
40640000000 -23.157242 -42.067753 -1.2331744 66.127525 -1.2361006 66.154678 -21.25205 -21.138237
40650000000 -23.145393 -42.264591 -1.2307327 66.069962 -1.2370893 66.057671 -21.233501 -21.064615
40660000000 -23.011539 -42.50737 -1.2343467 65.986015 -1.2362785 65.976669 -21.233244 -20.981066
40670000000 -22.988724 -42.418045 -1.2359068 65.896744 -1.2400697 65.939606 -21.211496 -20.860189
40680000000 -22.908106 -41.867336 -1.2352804 65.830612 -1.238521 65.84845 -21.246227 -20.759369
40690000000 -22.839279 -42.16943 -1.2362685 65.752335 -1.2381866 65.775726 -21.271164 -20.700281
40700000000 -22.924175 -41.627865 -1.2353585 65.676605 -1.2386191 65.687263 -21.224886 -20.559629
40710000000 -22.847925 -41.499516 -1.2375849 65.608597 -1.2436556 65.60112 -21.244844 -20.82299
40720000000 -22.861158 -41.543362 -1.236231 65.521278 -1.2425523 65.52507 -21.259121 -21.030846
40730000000 -22.930052 -41.135452 -1.2407769 65.425186 -1.2441726 65.446457 -21.258581 -20.946552
40740000000 -22.954397 -40.589375 -1.2345005 65.342453 -1.2423666 65.358551 -21.243265 -20.979071
40750000000 -23.041645 -41.071121 -1.2379247 65.264915 -1.2389592 65.285156 -21.21763 -20.448048
40760000000 -23.005274 -41.520161 -1.236783 65.174576 -1.2414246 65.189827 -21.18981 -20.193773
40770000000 -23.066538 -41.604755 -1.2363652 65.134094 -1.2381439 65.11924 -21.186554 -20.189386
40780000000 -23.028572 -41.733437 -1.2359331 65.047195 -1.2396938 65.02507 -21.164526 -20.209423
40790000000 -23.018402 -41.507072 -1.2401253 64.978645 -1.2430944 64.940964 -21.123358 -20.093239
40800000000 -22.957384 -41.480759 -1.2370814 64.877213 -1.2418039 64.86586 -21.107347 -19.244932
40810000000 -22.891993 -41.376289 -1.239171 64.767418 -1.2425278 64.791985 -21.104794 -19.007669
40820000000 -22.869385 -40.949322 -1.2398883 64.667282 -1.244014 64.727043 -21.106283 -18.767052
40830000000 -22.89677 -40.598843 -1.2404879 64.608002 -1.2457927 64.627678 -21.118759 -18.678453
40840000000 -22.899464 -39.970276 -1.2344345 64.497047 -1.2417808 64.544243 -21.120411 -18.511488
40850000000 -22.955175 -39.825912 -1.2378682 64.426117 -1.2432237 64.45475 -21.145931 -17.462547
40860000000 -22.997437 -39.303284 -1.2378631 64.344978 -1.2455972 64.382988 -21.136486 -17.591108
40870000000 -23.090813 -39.416481 -1.2390033 64.285805 -1.2392812 64.304466 -21.146723 -17.779434
40880000000 -23.133497 -39.771378 -1.2385885 64.168297 -1.2428741 64.221634 -21.071779 -17.337421
40890000000 -23.209988 -40.126759 -1.2385095 64.093811 -1.2353251 64.123535 -21.068069 -16.842192
40900000000 -23.258928 -40.638836 -1.2376063 64.029724 -1.2417808 64.054077 -21.089319 -16.79504
40910000000 -23.269768 -40.807674 -1.2418721 63.959457 -1.2431816 63.976273 -20.95628 -16.470257
40920000000 -23.226892 -41.964615 -1.2377911 63.867912 -1.242806 63.920612 -21.021063 -16.03281
40930000000 -23.15984 -42.184929 -1.2405165 63.802738 -1.2480208 63.797138 -20.968773 -15.327622
40940000000 -23.098938 -42.74292 -1.2437097 63.726978 -1.2440857 63.751564 -20.968773 -15.032977
40950000000 -22.999308 -42.657307 -1.2413832 63.628685 -1.244558 63.685989 -21.065069 -14.666419
40960000000 -22.915833 -42.572811 -1.2429806 63.547459 -1.2490377 63.57275 -21.034538 -14.080348
40970000000 -22.885567 -41.945923 -1.2427859 63.468018 -1.2489698 63.491055 -21.10346 -13.855341
40980000000 -22.908325 -41.785843 -1.2429235 63.403534 -1.2517288 63.390503 -21.187117 -13.41509
40990000000 -22.918943 -40.835842 -1.2463356 63.340683 -1.2462077 63.33054 -21.222017 -13.15015
41000000000 -23.004431 -40.466923 -1.2440809 63.257069 -1.246733 63.25544 -21.315756 -13.034756
41010000000 -23.01104 -40.288677 -1.2406991 63.18642 -1.2492079 63.214561 -21.332493 -13.413474
41020000000 -23.188534 -40.135918 -1.2439286 63.067924 -1.2477055 63.100723 -21.394735 -13.297759
41030000000 -23.152567 -40.005932 -1.2460366 63.002869 -1.2468261 63.041897 -21.382378 -13.637191
41040000000 -23.348963 -40.255066 -1.2457331 62.938362 -1.2478348 62.948132 -21.430714 -13.604609
41050000000 -23.414768 -40.353878 -1.2392288 62.863655 -1.2472672 62.866734 -21.335649 -13.570665
41060000000 -23.336472 -41.098835 -1.2438579 62.769562 -1.249406 62.80122 -21.286612 -13.638656
41070000000 -23.37138 -41.421272 -1.2421674 62.71899 -1.2499352 62.73698 -21.277658 -13.120482
41080000000 -23.299162 -41.903858 -1.2421604 62.590263 -1.2468992 62.651646 -21.190029 -12.578045
41090000000 -23.231466 -41.647369 -1.2420292 62.549393 -1.2479187 62.55064 -21.21216 -11.765635
41100000000 -23.281168 -41.215973 -1.2444167 62.461662 -1.2510054 62.441521 -21.261017 -11.573908
41110000000 -23.217558 -41.3717 -1.2431043 62.354485 -1.2502935 62.397858 -21.267811 -10.637808
41120000000 -23.283659 -40.609753 -1.2449014 62.280766 -1.2491264 62.303947 -21.319269 -10.382073
41130000000 -23.310249 -40.795654 -1.2466437 62.215969 -1.2494326 62.187206 -21.42977 -9.8589878
41140000000 -23.365183 -40.071774 -1.2444487 62.137894 -1.2478455 62.125195 -21.525967 -9.6289883
41150000000 -23.570736 -40.366348 -1.2421484 62.061066 -1.2443697 62.111843 -21.62097 -9.8221359
41160000000 -23.618227 -39.911003 -1.2433099 61.988564 -1.2453941 62.057468 -21.75083 -9.700264
41170000000 -23.719875 -40.326859 -1.2457645 61.914574 -1.2424682 61.939552 -21.82481 -10.0755
41180000000 -23.737371 -40.624363 -1.237601 61.901802 -1.2487037 61.887833 -21.916426 -10.430028
41190000000 -23.8636 -41.09354 -1.2431171 61.8069 -1.2463722 61.804462 -21.892139 -10.935272
41200000000 -23.898836 -41.663788 -1.2439575 61.698315 -1.2454745 61.696484 -21.868267 -11.15611
41210000000 -23.844202 -41.997913 -1.248577 61.650013 -1.250792 61.646549 -21.875221 -11.240417
41220000000 -23.740761 -41.792328 -1.2506742 61.597317 -1.2532375 61.575249 -21.854984 -11.306639
41230000000 -23.789091 -42.076805 -1.2486219 61.499264 -1.251276 61.494995 -21.746746 -11.517366
41240000000 -23.782007 -41.654644 -1.2510972 61.387672 -1.2569956 61.429733 -21.779232 -11.155619
41250000000 -23.662203 -41.799957 -1.2511383 61.338364 -1.2557144 61.324417 -21.70657 -10.773294
41260000000 -23.718056 -40.886307 -1.2534426 61.210716 -1.2571642 61.223869 -21.708097 -10.418805
41270000000 -23.825056 -41.223797 -1.2541924 61.13401 -1.2579592 61.133991 -21.683687 -10.051221
41280000000 -23.841379 -40.798222 -1.2487075 61.049374 -1.255479 61.084057 -21.671982 -9.4897833
41290000000 -23.956293 -40.526402 -1.2503208 60.983364 -1.2526343 61.002224 -21.705477 -9.4331923
41300000000 -24.094261 -40.561321 -1.2475812 60.895576 -1.2537819 60.89465 -21.702719 -9.0050478
41310000000 -24.110165 -41.215561 -1.2483952 60.814407 -1.2527235 60.826324 -21.726391 -8.8616018
41320000000 -24.201822 -41.556927 -1.2487392 60.735504 -1.252767 60.752266 -21.760384 -8.7097139
41330000000 -24.203911 -42.33004 -1.2492476 60.693424 -1.2527997 60.676704 -21.796501 -8.7262764
41340000000 -24.11989 -43.178692 -1.2456597 60.622272 -1.2498112 60.589664 -21.699705 -8.6211805
41350000000 -24.1395 -43.349823 -1.2501764 60.524696 -1.2561775 60.531624 -21.709183 -8.5625515
41360000000 -24.055367 -43.883518 -1.2506797 60.44257 -1.2533826 60.465378 -21.664665 -7.7230844
41370000000 -23.868147 -44.048122 -1.256098 60.380322 -1.2617882 60.363464 -21.655342 -7.8851895
41380000000 -23.864305 -43.594837 -1.2586724 60.224407 -1.2604119 60.286221 -21.596207 -7.4449902
41390000000 -23.889076 -43.148537 -1.257443 60.179268 -1.2646316 60.187729 -21.591774 -7.1891599
41400000000 -23.8606 -42.202259 -1.2584521 60.052521 -1.2601465 60.090931 -21.529396 -6.1857224
41410000000 -23.95816 -41.42247 -1.2552823 59.96146 -1.2622455 60.010571 -21.533588 -5.4987392
41420000000 -24.015306 -40.878292 -1.2600205 59.872723 -1.2640498 59.873123 -21.518843 -4.6345878
41430000000 -24.085503 -40.30051 -1.2585306 59.835278 -1.2584013 59.82312 -21.606495 -3.6607525
41440000000 -24.402189 -40.487339 -1.253916 59.684563 -1.2644141 59.731243 -21.657631 -3.1682892
41450000000 -24.63978 -40.162575 -1.2472632 59.634022 -1.2564492 59.667782 -21.742638 -2.1656859
41460000000 -24.786739 -40.672733 -1.2541274 59.576408 -1.2557157 59.567097 -21.87105 -1.7486987
41470000000 -24.90406 -41.646828 -1.2515693 59.509228 -1.2567605 59.535168 -21.98296 -0.72863173
41480000000 -24.998875 -42.23201 -1.2508394 59.470226 -1.2566899 59.436954 -22.107771 -0.67146832
41490000000 -25.118273 -42.875393 -1.2525079 59.400265 -1.2557783 59.402264 -22.229265 -0.55784094
41500000000 -25.113762 -44.744671 -1.2514915 59.291294 -1.257889 59.329231 -22.335222 -0.052010801
41510000000 -25.146481 -44.918884 -1.2512288 59.243919 -1.2576183 59.23782 -22.457325 -0.59545213
41520000000 -25.001051 -45.051731 -1.2522289 59.20583 -1.2541534 59.189007 -22.48642 -1.0275434
41530000000 -24.940428 -44.880253 -1.2530491 59.073708 -1.2559131 59.130108 -22.510334 -0.92308974
41540000000 -24.958988 -44.659367 -1.2572465 59.020855 -1.2560178 59.032227 -22.492283 -0.61780316
41550000000 -24.910553 -44.762463 -1.2533798 58.960613 -1.2524561 58.951138 -22.514376 -1.1855252
41560000000 -24.994263 -44.071556 -1.2552291 58.833958 -1.2599392 58.843182 -22.5748 -0.64701396
41570000000 -25.096346 -43.097313 -1.2528927 58.793552 -1.2577162 58.795998 -22.54751 0.00043358165
41580000000 -25.143408 -43.291328 -1.2544246 58.683502 -1.2596482 58.671871 -22.652582 0.23058815
41590000000 -25.217213 -43.402637 -1.2541914 58.604984 -1.2553287 58.599686 -22.620911 0.28889343
41600000000 -25.428247 -42.893387 -1.2581013 58.50771 -1.2588066 58.539421 -22.647429 1.4923867
41610000000 -25.546894 -42.922272 -1.2565001 58.447495 -1.2599403 58.484268 -22.708374 1.2456235
41620000000 -25.529984 -43.331631 -1.2541945 58.375591 -1.2562152 58.40432 -22.870083 1.5505564
41630000000 -25.616814 -43.579182 -1.256125 58.278984 -1.256851 58.324947 -22.833426 1.7570068
41640000000 -25.593565 -43.575882 -1.2538099 58.209995 -1.2567183 58.230171 -23.05102 1.8610377
41650000000 -25.453314 -43.252338 -1.26475 58.138832 -1.2575332 58.162014 -23.015066 1.8556141
41660000000 -25.487457 -43.323658 -1.2596666 58.043186 -1.2556753 58.083828 -23.028099 1.4027715
41670000000 -25.5294 -42.693916 -1.2577839 57.975193 -1.2618107 58.00882 -22.924385 1.8067439
41680000000 -25.582993 -41.96294 -1.2590865 57.894905 -1.2585216 57.887909 -22.949144 1.00304
41690000000 -25.707165 -41.926609 -1.2625945 57.779495 -1.2617466 57.798153 -22.936979 2.4590473
41700000000 -25.904003 -40.207687 -1.2574395 57.686836 -1.2634143 57.703529 -22.874041 3.0227265
41710000000 -26.092613 -40.22065 -1.2513752 57.64257 -1.2596151 57.639278 -22.880777 3.403173
41720000000 -26.35928 -39.393139 -1.2622852 57.51178 -1.2673981 57.524189 -22.883291 4.4933062
41730000000 -26.803926 -39.919582 -1.2555225 57.439411 -1.2582536 57.417091 -22.909193 5.6229334
41740000000 -26.944231 -40.6343 -1.2556258 57.371063 -1.2611524 57.370884 -23.008228 6.7291284
41750000000 -27.249203 -41.344326 -1.2580675 57.312458 -1.2638489 57.302876 -23.02478 7.7191873
41760000000 -27.406485 -43.654922 -1.2543216 57.254642 -1.2550439 57.223446 -23.267904 8.1779547
41770000000 -27.486034 -44.65736 -1.2539927 57.133434 -1.2605697 57.124279 -23.301195 9.2560606
41780000000 -27.449476 -46.623459 -1.2534388 57.038147 -1.2581505 57.068668 -23.453083 10.237965
41790000000 -27.364214 -46.829826 -1.2604288 56.970913 -1.2611773 56.989307 -23.452951 10.238274
41800000000 -27.162773 -46.487247 -1.2607807 56.900383 -1.258062 56.918472 -23.582161 9.7373571
41810000000 -27.298004 -45.88216 -1.2630061 56.809624 -1.260587 56.839516 -23.654047 10.438471
41820000000 -27.218304 -45.410938 -1.2599161 56.716072 -1.2596908 56.721233 -23.719938 11.034946
41830000000 -27.284252 -44.298866 -1.2598112 56.670723 -1.2613639 56.665764 -23.728498 11.398335
41840000000 -27.493174 -41.240318 -1.262701 56.494926 -1.2693567 56.547131 -23.683678 12.130862
41850000000 -27.83321 -41.222797 -1.2582536 56.421921 -1.2634341 56.418476 -23.772818 13.778745
41860000000 -28.105326 -39.745377 -1.2574561 56.333183 -1.2638496 56.366478 -23.892284 14.06461
41870000000 -28.648058 -38.954926 -1.2627236 56.283657 -1.2555989 56.280788 -24.048872 15.520073
41880000000 -29.184599 -39.684196 -1.2567563 56.175674 -1.2667716 56.223644 -24.087837 17.020498
41890000000 -29.696196 -42.000221 -1.2492417 56.112072 -1.2579263 56.113285 -24.295702 17.834606
41900000000 -30.020145 -43.026955 -1.2543077 56.018761 -1.2539816 56.018528 -24.589682 19.060894
41910000000 -30.43215 -45.445496 -1.2519985 55.982292 -1.2551545 55.962357 -24.778143 19.759949
41920000000 -30.413088 -48.314137 -1.2543703 55.878773 -1.2534817 55.913185 -24.960155 19.988222
41930000000 -30.418156 -51.072319 -1.2511421 55.846115 -1.2564037 55.872169 -25.136755 19.552126
41940000000 -30.269926 -51.284405 -1.2493898 55.744057 -1.2536485 55.798252 -25.377148 18.58688
41950000000 -30.140722 -52.12883 -1.2525842 55.744141 -1.2568835 55.695122 -25.454647 18.13624
41960000000 -30.201494 -50.588032 -1.2521684 55.652054 -1.2566277 55.623871 -25.590509 17.386766
41970000000 -30.012407 -50.490623 -1.2490205 55.520763 -1.2536064 55.561901 -25.522076 17.020269
41980000000 -30.211662 -48.449295 -1.2557883 55.487068 -1.2594639 55.454803 -25.434006 16.283531
41990000000 -30.264742 -47.578716 -1.2524153 55.422836 -1.260733 55.406822 -25.227022 16.36451
42000000000 -30.665022 -46.833241 -1.2547463 55.299278 -1.2637055 55.336777 -25.175869 16.762213
42010000000 -31.25901 -46.611485 -1.2627267 55.229485 -1.2588242 55.22823 -24.989079 18.066454
42020000000 -31.445679 -47.479507 -1.2575287 55.139061 -1.2611486 55.139954 -24.926014 19.263474
42030000000 -32.129574 -47.933064 -1.2615162 55.061344 -1.2662754 55.074745 -24.859741 19.910759
42040000000 -32.175346 -52.502529 -1.2515686 54.918056 -1.2595105 54.967316 -24.838459 21.746452
42050000000 -32.588238 -54.03941 -1.2536955 54.879101 -1.2608278 54.896053 -24.923822 23.001532
42060000000 -32.657539 -55.35817 -1.2578628 54.796013 -1.2572663 54.808941 -25.000444 23.697119
42070000000 -32.798615 -58.413357 -1.2538517 54.708809 -1.2612975 54.708527 -24.999405 24.675346
42080000000 -32.527691 -57.41254 -1.25422 54.598442 -1.2570398 54.623615 -25.158857 26.057751
42090000000 -32.432938 -58.99408 -1.2543569 54.539921 -1.2572732 54.547176 -25.183084 26.695129
42100000000 -32.594955 -57.76302 -1.2565678 54.426529 -1.2567034 54.465866 -25.286757 27.349634
42110000000 -32.717541 -56.707733 -1.2598153 54.374039 -1.2595656 54.365952 -25.193466 28.222273
42120000000 -33.054043 -55.842762 -1.2551984 54.289097 -1.2553086 54.314915 -25.174824 29.158936
42130000000 -33.425537 -53.782711 -1.2541081 54.189262 -1.2580993 54.217083 -25.169333 29.969856
42140000000 -34.015507 -52.943321 -1.2570529 54.111332 -1.2608472 54.115234 -25.115822 31.651834
42150000000 -35.020588 -53.252636 -1.2554195 54.02322 -1.2619814 54.002216 -25.128725 33.24963
42160000000 -36.119492 -53.395184 -1.2635635 53.90728 -1.259431 53.901108 -25.266739 35.52351
42170000000 -36.974514 -56.760925 -1.2570329 53.846485 -1.2558053 53.825741 -25.276375 37.574657
42180000000 -37.696568 -58.69928 -1.2594296 53.738026 -1.2651339 53.730892 -25.432537 39.438637
42190000000 -38.258896 -64.319328 -1.2567874 53.652405 -1.2583995 53.642662 -25.699715 41.86787
42200000000 -38.958889 -70.263939 -1.2518378 53.595276 -1.2546382 53.581493 -25.790749 43.891476
42210000000 -39.645142 -71.488937 -1.2535708 53.483829 -1.2569512 53.521862 -26.249884 45.408985
42220000000 -39.254131 -73.643684 -1.2493874 53.413696 -1.2556376 53.423557 -26.48909 46.36087
42230000000 -39.81683 -76.663086 -1.2386239 53.373459 -1.2493018 53.340237 -26.961443 46.946815
42240000000 -40.693474 -77.741302 -1.2492872 53.244072 -1.2516838 53.28191 -27.197968 46.500565
42250000000 -41.55056 -72.235672 -1.2493384 53.188236 -1.2561237 53.227325 -27.410707 47.27758
42260000000 -42.224087 -74.432022 -1.2505279 53.1782 -1.2522531 53.198883 -27.725071 46.142742
42270000000 -44.731831 -79.198555 -1.2556148 53.107662 -1.253378 53.132858 -27.739944 43.899078
42280000000 -44.471504 -97.630714 -1.2498409 52.990273 -1.2502689 53.04282 -27.837635 43.738953
42290000000 -43.701809 -113.73635 -1.2494957 52.948338 -1.248342 52.936958 -27.749075 42.298531
42300000000 -43.320297 -125.76067 -1.2515274 52.84153 -1.2513807 52.830009 -27.681488 43.052841
42310000000 -41.157997 -133.46797 -1.2519159 52.785301 -1.2515533 52.780132 -27.551949 42.239735
42320000000 -40.569038 -134.80368 -1.2461228 52.680359 -1.2562867 52.722282 -27.431759 42.73008
42330000000 -38.854969 -134.18433 -1.2538953 52.611034 -1.2586776 52.639591 -27.093433 43.298046
42340000000 -38.093311 -129.41081 -1.2596302 52.535683 -1.2549492 52.559525 -26.985594 44.199177
42350000000 -37.732563 -126.86173 -1.2503173 52.414326 -1.2589204 52.485676 -27.078524 44.670982
42360000000 -37.370178 -121.9525 -1.2552837 52.415558 -1.2555457 52.426113 -26.792992 45.041603
42370000000 -37.61594 -118.16842 -1.2545942 52.304008 -1.2617079 52.363773 -26.805965 46.313618
42380000000 -38.032501 -115.83096 -1.2548109 52.229851 -1.2593179 52.307064 -26.635441 46.382095
42390000000 -38.835552 -115.54967 -1.2593213 52.168823 -1.2592062 52.198673 -26.687622 47.779182
42400000000 -39.758472 -117.86135 -1.2570962 52.069633 -1.2610503 52.100925 -26.611109 48.833969
42410000000 -40.871422 -127.31645 -1.259999 51.982349 -1.2631972 51.99535 -26.488091 49.568932
42420000000 -42.803986 -133.52028 -1.2642703 51.895847 -1.2685472 51.912777 -26.291504 51.837894
42430000000 -42.2841 -152.83427 -1.2587395 51.80312 -1.2596033 51.796158 -26.310081 53.164173
42440000000 -41.422665 -167.85764 -1.2695676 51.656494 -1.2688564 51.695919 -26.034752 55.873276
42450000000 -40.4842 -179.17549 -1.2688783 51.59869 -1.2664888 51.591671 -25.961515 57.993267
42460000000 -38.908623 -179.58975 -1.2622015 51.503105 -1.2716407 51.513309 -25.830524 60.421459
42470000000 -37.718746 175.70863 -1.2662075 51.415005 -1.2630165 51.410633 -25.94767 62.256336
42480000000 -36.778564 176.62119 -1.2577438 51.283691 -1.265535 51.34251 -25.911573 64.706703
42490000000 -36.283356 174.49287 -1.262099 51.248707 -1.2658031 51.244877 -26.085436 67.521301
42500000000 -35.694733 175.2674 -1.2547086 51.127934 -1.2611763 51.140858 -26.221937 69.496124
42510000000 -35.272598 178.22946 -1.2523097 51.061382 -1.2594372 51.083431 -26.615639 71.384491
42520000000 -35.458054 177.22086 -1.2569652 50.976139 -1.2543749 51.029873 -26.730814 72.436081
42530000000 -35.386711 175.43651 -1.2532499 50.937408 -1.2573984 50.943298 -26.963428 72.538216
42540000000 -35.046219 170.50069 -1.2578952 50.844997 -1.2623552 50.852676 -27.060732 72.331688
42550000000 -34.814407 171.49467 -1.2523152 50.789074 -1.2575881 50.80563 -27.274532 72.220604
42560000000 -34.374626 167.30069 -1.25845 50.6745 -1.2602147 50.741703 -27.239759 71.544617
42570000000 -33.917889 166.88477 -1.2593784 50.586853 -1.2584863 50.639923 -27.04044 72.537277
42580000000 -33.202374 166.78072 -1.2571926 50.483467 -1.2664472 50.519611 -26.922003 72.034683
42590000000 -33.097309 165.58519 -1.2618966 50.435509 -1.266878 50.485031 -26.746105 73.238487
42600000000 -32.669056 166.6534 -1.2607381 50.376194 -1.2673794 50.363564 -26.607197 74.666183
42610000000 -32.300632 167.42593 -1.2597935 50.266232 -1.2649721 50.252605 -26.494453 75.644753
42620000000 -32.083992 168.54716 -1.2623019 50.219879 -1.2656517 50.208782 -26.410713 76.772675
42630000000 -31.695181 169.28687 -1.2640303 50.111095 -1.2600461 50.127426 -26.484245 79.303085
42640000000 -31.92136 169.22246 -1.2564967 50.033047 -1.2563462 50.071281 -26.551903 80.4142
42650000000 -32.126209 169.82373 -1.2547201 49.93243 -1.2620658 49.982574 -26.692526 83.267776
42660000000 -31.991205 168.56508 -1.2528851 49.889553 -1.2569956 49.89378 -27.043522 82.708946
42670000000 -32.195198 167.11659 -1.2576951 49.83643 -1.2612615 49.829887 -27.283323 83.592651
42680000000 -32.093826 165.56508 -1.2612247 49.80265 -1.2622912 49.761459 -27.388475 82.566399
42690000000 -31.960085 164.5703 -1.2482382 49.699863 -1.2607534 49.709217 -27.662102 81.966759
42700000000 -31.787336 162.84901 -1.2517827 49.614838 -1.2610171 49.634975 -27.584251 80.676102
42710000000 -31.634888 161.68217 -1.2562594 49.573479 -1.260479 49.579189 -27.436146 79.371597
42720000000 -31.31151 160.8795 -1.259541 49.452942 -1.2634835 49.510139 -27.294926 79.374771
42730000000 -31.20822 161.27522 -1.2592345 49.390896 -1.2686602 49.425728 -27.027832 79.000137
42740000000 -30.653677 161.58148 -1.258376 49.285282 -1.2608198 49.336861 -26.736437 80.255913
42750000000 -30.397753 161.28427 -1.2663401 49.186371 -1.264473 49.251518 -26.417404 81.096527
42760000000 -30.087212 161.15276 -1.2616892 49.081192 -1.2701006 49.108784 -26.173222 83.561516
42770000000 -30.117006 161.08655 -1.2634528 49.027267 -1.2636044 49.048786 -26.030361 85.095398
42780000000 -29.844114 160.35208 -1.2610925 48.913719 -1.2695506 48.950539 -26.014795 86.384384
42790000000 -29.829912 158.91631 -1.2610337 48.829643 -1.2666305 48.834846 -25.964224 88.448204
42800000000 -29.777884 158.40781 -1.2591698 48.717358 -1.2612157 48.782444 -26.126406 90.902885
42810000000 -29.679131 154.48894 -1.261204 48.667076 -1.27159 48.686878 -26.284346 91.183052
42820000000 -29.502323 154.57413 -1.2649558 48.596272 -1.2698627 48.610168 -26.313591 92.215866
42830000000 -28.881483 152.92587 -1.2609354 48.508156 -1.2664226 48.514313 -26.41787 92.443825
42840000000 -28.630579 151.37692 -1.2641156 48.468277 -1.2663946 48.409302 -26.464846 91.844421
42850000000 -28.172682 151.58438 -1.2655641 48.31736 -1.2660422 48.3382 -26.465532 92.337875
42860000000 -27.834375 151.22652 -1.2683998 48.244286 -1.2731632 48.250607 -26.263964 91.980377
42870000000 -27.424006 152.53137 -1.2656757 48.157467 -1.2707717 48.17564 -26.209837 91.360893
42880000000 -27.20853 154.76158 -1.2619232 48.094807 -1.2673867 48.106731 -26.119692 91.584198
42890000000 -27.023788 155.68399 -1.2686692 48.003387 -1.2714086 47.994873 -25.952854 91.75692
42900000000 -26.883665 158.07971 -1.2662213 47.917686 -1.2702094 47.946671 -25.697788 91.562538
42910000000 -26.791641 159.85756 -1.2605315 47.858227 -1.2658027 47.836926 -25.648722 92.927811
42920000000 -27.019781 160.16794 -1.2646282 47.788799 -1.2694982 47.78569 -25.460884 93.83744
42930000000 -27.064335 161.95282 -1.2570463 47.672314 -1.2673895 47.708092 -25.528557 95.323303
42940000000 -27.179873 160.8278 -1.2627285 47.599983 -1.2662033 47.597549 -25.401806 96.795151
42950000000 -27.10585 160.81567 -1.2635628 47.515335 -1.2645828 47.497887 -25.423567 96.490158
42960000000 -27.338953 159.62897 -1.2631106 47.450829 -1.265112 47.429802 -25.548464 98.06002
42970000000 -27.376421 158.45345 -1.2655225 47.348454 -1.2609614 47.367825 -25.680618 97.544983
42980000000 -27.337925 156.70287 -1.2640234 47.309578 -1.2689022 47.307095 -25.604914 98.268318
42990000000 -27.175711 155.00787 -1.267455 47.192196 -1.2652571 47.219135 -25.713577 99.20446
43000000000 -26.993315 154.79396 -1.2659005 47.093197 -1.2604164 47.136631 -25.602278 98.592346
43010000000 -26.805523 153.43661 -1.2634119 47.048462 -1.2706555 47.032005 -25.612501 98.312836
43020000000 -26.664986 152.68814 -1.2688831 46.931622 -1.270489 46.96907 -25.533297 98.328255
43030000000 -26.412779 152.78268 -1.2622992 46.905464 -1.2740968 46.890335 -25.466703 98.715866
43040000000 -26.285664 151.87413 -1.2654287 46.780571 -1.2732062 46.820843 -25.370935 99.248863
43050000000 -26.23975 152.19865 -1.2705573 46.734943 -1.2680213 46.732895 -25.232174 99.544983
43060000000 -26.219055 151.94193 -1.2670835 46.662357 -1.27431 46.636177 -25.09379 99.448761
43070000000 -26.040308 151.44238 -1.2684945 46.557079 -1.2698328 46.539074 -24.920328 100.07818
43080000000 -25.830235 150.2092 -1.2699262 46.445358 -1.2737025 46.484303 -24.930717 99.834198
43090000000 -25.742823 148.75256 -1.2761134 46.425995 -1.2715611 46.40744 -24.800648 101.47004
43100000000 -25.425518 148.00931 -1.2709517 46.306896 -1.2764242 46.322174 -24.715019 101.99492
43110000000 -25.113049 148.16991 -1.2692895 46.217659 -1.2749792 46.202011 -24.513153 102.65627
43120000000 -24.880394 147.17216 -1.278653 46.127689 -1.2765336 46.139286 -24.536503 103.19968
43130000000 -24.527773 147.71158 -1.273343 46.032261 -1.2767683 46.062752 -24.408482 103.88638
43140000000 -24.308559 148.60316 -1.266687 45.941559 -1.2738795 45.952198 -24.354969 104.81834
43150000000 -24.025452 149.23001 -1.2756939 45.880062 -1.2798746 45.889805 -24.175308 104.17811
43160000000 -23.877613 150.32011 -1.2742145 45.758408 -1.2696023 45.781166 -24.133833 105.22058
43170000000 -23.691414 150.86363 -1.2751591 45.654213 -1.2788835 45.676113 -24.088245 105.42176
43180000000 -23.720234 152.06912 -1.2762328 45.59639 -1.2773999 45.612156 -24.028383 105.839
43190000000 -23.689013 153.03702 -1.2742294 45.50095 -1.2757154 45.50214 -23.995258 106.46513
43200000000 -23.668121 153.54565 -1.2727572 45.410416 -1.2752804 45.409256 -23.924301 106.12785
43210000000 -23.6945 153.42865 -1.271011 45.347912 -1.2768288 45.353687 -23.961025 106.35954
43220000000 -23.798128 153.21492 -1.2754862 45.254795 -1.2807679 45.309647 -23.913839 107.02926
43230000000 -23.735085 152.306 -1.2723401 45.197884 -1.2780592 45.177155 -23.841837 107.11501
43240000000 -23.716686 151.83511 -1.2796403 45.100086 -1.2787403 45.099026 -23.760889 107.46615
43250000000 -23.555197 151.1223 -1.2739142 45.011471 -1.2770317 45.00045 -23.702572 108.05695
43260000000 -23.470161 150.82013 -1.2734568 44.941547 -1.2826011 44.931759 -23.643415 107.87701
43270000000 -23.331223 149.76065 -1.279299 44.866791 -1.2786249 44.858616 -23.631884 108.70392
43280000000 -23.175886 149.72006 -1.2730882 44.730858 -1.281756 44.743896 -23.422573 109.79451
43290000000 -23.00589 150.35838 -1.2762859 44.635811 -1.2809515 44.662418 -23.484859 110.08114
43300000000 -22.973074 150.60851 -1.2776722 44.596493 -1.2794982 44.599266 -23.403708 110.00603
43310000000 -22.739462 150.36748 -1.2853398 44.518517 -1.2838409 44.510307 -23.498283 110.01441
43320000000 -22.824055 150.96443 -1.2783434 44.476372 -1.2818611 44.429237 -23.406033 110.59811
43330000000 -22.734015 150.96301 -1.2781732 44.341503 -1.2791172 44.329899 -23.465054 110.97648
43340000000 -22.720341 151.26857 -1.2769284 44.28521 -1.2816563 44.278339 -23.478508 110.86999
43350000000 -22.653605 150.9391 -1.2771894 44.163921 -1.2838621 44.204929 -23.486078 111.37365
43360000000 -22.710629 151.18874 -1.2770253 44.098087 -1.2866695 44.086586 -23.452614 110.32646
43370000000 -22.676691 150.26752 -1.2773477 44.06007 -1.2806505 44.046021 -23.403517 110.60393
43380000000 -22.524637 150.36951 -1.2867016 43.944698 -1.2859483 43.9366 -23.281334 110.12429
43390000000 -22.464584 150.08968 -1.282758 43.877899 -1.2830648 43.89513 -23.296932 110.07154
43400000000 -22.314526 149.46391 -1.2823817 43.798805 -1.2851993 43.828312 -23.349615 110.47411
43410000000 -22.181499 149.88113 -1.2771428 43.721535 -1.2866055 43.748825 -23.093412 109.80721
43420000000 -22.040079 149.84027 -1.2773179 43.607037 -1.2880082 43.601734 -23.069801 110.36478
43430000000 -21.963354 149.96249 -1.2852765 43.493721 -1.2849643 43.537998 -22.976904 110.72138
43440000000 -21.777681 150.54681 -1.276695 43.396416 -1.2877133 43.41069 -22.976908 111.43176
43450000000 -21.870903 150.47408 -1.2816051 43.351582 -1.2877238 43.360626 -22.976757 111.82642
43460000000 -21.844555 151.15967 -1.2848715 43.31699 -1.2846888 43.303078 -23.059601 111.6455
43470000000 -21.828672 151.42017 -1.2777716 43.219902 -1.2768447 43.188156 -23.050323 111.59152
43480000000 -21.783009 151.78963 -1.283902 43.12463 -1.2857373 43.188862 -23.018806 110.67999
43490000000 -21.836218 151.41589 -1.2823559 43.05751 -1.2859302 43.087063 -23.04183 111.01527
43500000000 -21.77457 151.02226 -1.2801663 42.952991 -1.2895814 42.988541 -23.007168 110.4408
43510000000 -21.775555 151.1617 -1.2835573 42.886299 -1.2897692 42.931911 -22.94628 109.6688
43520000000 -21.660168 150.9323 -1.2869828 42.814152 -1.2845889 42.829666 -22.813351 109.93509
43530000000 -21.593119 150.28296 -1.2912545 42.773281 -1.288463 42.748234 -22.745071 109.11299
43540000000 -21.489759 150.1277 -1.2814668 42.627281 -1.2874153 42.658466 -22.524818 109.36179
43550000000 -21.436539 150.52161 -1.2793154 42.599354 -1.2842013 42.586685 -22.39098 109.81015
43560000000 -21.428202 150.32042 -1.2898741 42.487682 -1.2948442 42.495239 -22.21032 109.82173
43570000000 -21.288076 150.05136 -1.2874361 42.379742 -1.2901702 42.42701 -22.089573 111.08151
43580000000 -21.178383 150.13426 -1.2840705 42.299725 -1.2926968 42.330544 -21.92141 111.81013
43590000000 -21.201206 150.11076 -1.2911316 42.227131 -1.2925309 42.211311 -21.837881 112.82675
43600000000 -21.119236 149.80093 -1.2884181 42.123817 -1.294036 42.109856 -21.803493 113.61
43610000000 -21.170088 149.92546 -1.2901055 42.070286 -1.2896637 42.067211 -21.854301 114.87194
43620000000 -21.116194 149.53868 -1.2868742 41.91917 -1.2886926 41.903564 -21.826792 116.18272
43630000000 -21.135612 149.05176 -1.2848938 41.860004 -1.2931153 41.87709 -21.919989 116.34232
43640000000 -21.097567 148.47668 -1.2877265 41.778809 -1.295112 41.801189 -22.037626 116.90276
43650000000 -21.079958 147.82678 -1.2856005 41.720863 -1.2956666 41.729935 -22.166355 117.51589
43660000000 -21.023268 147.04549 -1.2911319 41.609001 -1.2986852 41.624741 -22.14069 116.69675
43670000000 -20.866787 146.79948 -1.2926265 41.520077 -1.3021628 41.560177 -22.18668 115.91002
43680000000 -20.762699 146.23415 -1.2965646 41.461136 -1.2970911 41.501652 -22.198427 115.7961
43690000000 -20.658545 145.69891 -1.2877537 41.378136 -1.2973413 41.399292 -22.166584 115.10278
43700000000 -20.525841 145.52153 -1.292814 41.315342 -1.2938453 41.362255 -22.028309 114.73878
43710000000 -20.396338 145.55127 -1.2971054 41.248943 -1.3003608 41.242504 -21.846083 114.59417
43720000000 -20.27438 145.19138 -1.2944423 41.143276 -1.2995262 41.184204 -21.756645 115.13634
43730000000 -20.141428 145.36281 -1.3003076 41.023624 -1.3048334 41.069313 -21.554216 114.8238
43740000000 -20.036448 145.93021 -1.3031592 40.949318 -1.3043692 40.947598 -21.492931 115.36866
43750000000 -20.038364 146.09669 -1.3014599 40.904964 -1.3061215 40.91032 -21.548046 115.98219
43760000000 -19.895632 146.76353 -1.3002828 40.747856 -1.3043461 40.810738 -21.498594 116.67207
43770000000 -19.850365 147.12332 -1.3039421 40.700466 -1.2994996 40.699936 -21.565639 116.89257
43780000000 -19.809559 147.24483 -1.3044503 40.575428 -1.3034451 40.592388 -21.507591 117.22815
43790000000 -19.85107 147.65269 -1.3006188 40.519333 -1.3041081 40.494621 -21.549206 117.46654
43800000000 -19.763329 147.93094 -1.2996453 40.458691 -1.2987446 40.472095 -21.662537 116.91867
43810000000 -19.7484 148.27025 -1.2951587 40.378128 -1.2985029 40.37326 -21.679979 116.82854
43820000000 -19.790703 147.62685 -1.3044964 40.278927 -1.3060911 40.29015 -21.642843 116.26926
43830000000 -19.817719 147.51231 -1.3015151 40.247574 -1.300454 40.263309 -21.732679 115.70152
43840000000 -19.772146 147.74367 -1.308111 40.120766 -1.3082319 40.102673 -21.518044 115.17442
43850000000 -19.699432 147.59192 -1.3041986 40.04155 -1.3052627 40.045315 -21.484203 115.02999
43860000000 -19.695906 147.62943 -1.3058774 39.990616 -1.3082865 39.979813 -21.355953 115.34602
43870000000 -19.673904 147.71509 -1.306024 39.876598 -1.3063593 39.925259 -21.279928 115.29306
43880000000 -19.644817 147.81065 -1.3064204 39.815212 -1.3064561 39.827045 -21.288828 116.00836
43890000000 -19.580435 147.22847 -1.3084587 39.728104 -1.3042147 39.720982 -21.236799 116.1869
43900000000 -19.611166 147.20493 -1.3087194 39.638699 -1.3106215 39.651829 -21.231993 116.84498
43910000000 -19.618702 147.27319 -1.3080949 39.587925 -1.3112978 39.596344 -21.275387 116.94602
43920000000 -19.570814 147.2663 -1.3057494 39.476444 -1.3079437 39.496319 -21.414265 117.20242
43930000000 -19.497601 146.77795 -1.3030488 39.389259 -1.3062193 39.390533 -21.434935 117.28152
43940000000 -19.431303 146.67818 -1.3063761 39.316261 -1.3053071 39.299404 -21.557844 117.31602
43950000000 -19.434784 146.91318 -1.3042665 39.243927 -1.314734 39.249023 -21.461016 116.26075
43960000000 -19.34038 146.54817 -1.3057382 39.191143 -1.3108581 39.164234 -21.508894 115.67837
43970000000 -19.297249 146.21077 -1.3095672 39.072407 -1.3120065 39.085388 -21.407835 114.97827
43980000000 -19.164913 145.79358 -1.3017569 39.025856 -1.3156896 39.002426 -21.309282 115.12772
43990000000 -19.097944 145.91821 -1.3085084 38.898365 -1.3109908 38.913239 -21.154682 114.5091
44000000000 -19.059298 146.31508 -1.3089758 38.818302 -1.3075943 38.80822 -20.99453 114.38893
44010000000 -19.027248 146.20111 -1.3177949 38.745556 -1.3187526 38.732086 -20.95162 114.76364
44020000000 -18.956438 146.26091 -1.315405 38.654552 -1.3191808 38.679695 -20.832808 115.15002
44030000000 -18.91054 146.55278 -1.3152354 38.564137 -1.3161564 38.561558 -20.734627 115.48976
44040000000 -18.960024 146.79861 -1.3135047 38.475586 -1.3179085 38.474842 -20.752769 116.3185
44050000000 -18.931753 147.04747 -1.3112719 38.397362 -1.3217266 38.366344 -20.780825 116.72829
44060000000 -18.941729 146.66457 -1.3156801 38.308666 -1.318633 38.311996 -20.91132 117.14942
44070000000 -18.958082 146.68668 -1.319903 38.250088 -1.3218156 38.255375 -20.965729 117.13857
44080000000 -18.95437 146.56215 -1.315028 38.142715 -1.3187985 38.133678 -21.005634 117.0627
44090000000 -18.977659 146.21739 -1.3172578 38.048622 -1.3207117 38.068909 -21.143791 116.58577
44100000000 -18.910954 146.29588 -1.3113139 38.010647 -1.3161193 37.972294 -21.135088 115.81499
44110000000 -18.929607 146.18335 -1.3126031 37.913277 -1.3145788 37.965042 -21.16785 115.51688
44120000000 -18.849232 146.17706 -1.3154668 37.860832 -1.3188399 37.838676 -21.171068 114.91473
44130000000 -18.875538 145.76294 -1.3170148 37.801792 -1.3226306 37.741245 -21.034264 114.5023
44140000000 -18.788984 145.81377 -1.3187411 37.692783 -1.3217831 37.665165 -20.89255 113.60798
44150000000 -18.735674 145.49316 -1.3140105 37.582966 -1.3227184 37.610207 -20.85667 113.76556
44160000000 -18.730247 145.83304 -1.3152229 37.532867 -1.3245385 37.56097 -20.72451 113.6013
44170000000 -18.681404 145.53108 -1.3216697 37.425797 -1.3257509 37.438793 -20.583742 113.68961
44180000000 -18.602114 145.81323 -1.3241466 37.34692 -1.3185453 37.322666 -20.546154 114.21165
44190000000 -18.612059 145.69659 -1.3167993 37.28476 -1.3221983 37.255714 -20.533834 114.33759
44200000000 -18.635271 145.26338 -1.3208683 37.156803 -1.3241782 37.179493 -20.478479 115.07007
44210000000 -18.570509 145.37138 -1.319676 37.092522 -1.3249086 37.068993 -20.452753 115.5691
44220000000 -18.588455 145.2211 -1.3245062 37.044956 -1.3249052 37.023602 -20.469252 115.93338
44230000000 -18.501362 144.77185 -1.3186835 36.950226 -1.3272314 36.937294 -20.469225 115.69591
44240000000 -18.455744 144.02861 -1.3148987 36.868248 -1.3207921 36.846375 -20.596315 115.82932
44250000000 -18.426701 144.31741 -1.3215132 36.784939 -1.3222994 36.789001 -20.521122 115.43243
44260000000 -18.353607 143.7347 -1.3232576 36.715889 -1.3298198 36.711193 -20.546223 115.02577
44270000000 -18.275545 143.98607 -1.322392 36.61211 -1.3272543 36.628796 -20.524868 114.54995
44280000000 -18.212332 143.96948 -1.3275336 36.537212 -1.326996 36.537731 -20.488188 114.31551
44290000000 -18.202032 144.12767 -1.3267412 36.473866 -1.334017 36.464108 -20.387201 114.15121
44300000000 -18.07407 144.18135 -1.3247401 36.340351 -1.3279135 36.351326 -20.330135 114.26828
44310000000 -18.05736 144.27939 -1.3196838 36.29467 -1.3339323 36.300777 -20.291357 114.25795
44320000000 -18.061533 144.44078 -1.3286604 36.176826 -1.3264689 36.2038 -20.250269 114.16755
44330000000 -18.089638 144.38721 -1.3206072 36.13496 -1.3275139 36.115292 -20.223448 114.4519
44340000000 -18.0439 144.38234 -1.325864 36.03664 -1.3309964 36.019558 -20.212723 114.86626
44350000000 -18.028067 144.13226 -1.325485 35.924095 -1.3311118 35.940544 -20.214239 115.16076
44360000000 -18.019253 144.33313 -1.3252985 35.869057 -1.3261099 35.870522 -20.210947 114.80454
44370000000 -17.993921 144.02438 -1.3242769 35.790859 -1.3302227 35.79248 -20.228897 114.93944
44380000000 -18.003059 143.81946 -1.3256764 35.702282 -1.3247555 35.706261 -20.184677 115.05305
44390000000 -17.932522 143.49025 -1.3224183 35.648262 -1.3236368 35.610741 -20.237911 114.577
44400000000 -17.883213 143.47356 -1.3225633 35.527081 -1.3294261 35.518002 -20.225183 114.76646
44410000000 -17.783846 143.47739 -1.3250459 35.44899 -1.329284 35.42849 -20.12105 113.75044
44420000000 -17.740177 143.30727 -1.326483 35.342838 -1.3291346 35.351021 -20.051102 113.99368
44430000000 -17.722603 143.37141 -1.3265393 35.322533 -1.3297065 35.299259 -19.975016 113.65778
44440000000 -17.637318 143.38417 -1.3274524 35.224155 -1.3371445 35.220043 -19.881214 113.7934
44450000000 -17.581192 143.53381 -1.3317558 35.113407 -1.3299893 35.11422 -19.851196 113.67112
44460000000 -17.550619 143.72343 -1.3303792 35.000347 -1.3350216 35.031925 -19.772278 114.10366
44470000000 -17.490839 143.39349 -1.3253841 34.942589 -1.3353983 34.948311 -19.815613 114.41206
44480000000 -17.544962 143.65236 -1.3334935 34.843391 -1.3317604 34.833244 -19.800123 114.99726
44490000000 -17.557459 143.99506 -1.3270075 34.740906 -1.3330938 34.735748 -19.850485 115.33687
44500000000 -17.534023 144.00684 -1.3288608 34.641224 -1.3332458 34.655506 -19.900127 115.84413
44510000000 -17.526859 143.76671 -1.3263491 34.58247 -1.3364887 34.596474 -19.971321 115.90668
44520000000 -17.53175 144.0675 -1.3347732 34.519356 -1.3317013 34.52779 -20.095058 115.5129
44530000000 -17.526417 143.65443 -1.3311237 34.397049 -1.336637 34.398457 -20.170273 115.0965
44540000000 -17.517767 143.79799 -1.3274612 34.325291 -1.3337468 34.339554 -20.180429 114.92828
44550000000 -17.573498 143.52155 -1.3274964 34.292664 -1.3362874 34.283989 -20.16592 113.79105
44560000000 -17.505798 143.51651 -1.3287047 34.180931 -1.3293142 34.221115 -20.258793 113.06176
44570000000 -17.48991 143.23738 -1.329952 34.118916 -1.3290267 34.093052 -20.112503 112.23856
44580000000 -17.476957 143.1602 -1.3311329 34.053207 -1.338154 34.068035 -20.05302 111.97208
44590000000 -17.454397 143.06688 -1.3337383 33.972973 -1.3380628 33.97887 -19.928038 111.70991
44600000000 -17.417139 142.9595 -1.3283124 33.85405 -1.3408878 33.84866 -19.802511 112.00912
44610000000 -17.390263 142.61214 -1.3343585 33.758205 -1.3328978 33.782219 -19.777971 112.03372
44620000000 -17.367973 142.51326 -1.3280443 33.739185 -1.3437192 33.724224 -19.716331 112.49
44630000000 -17.298996 142.42918 -1.337302 33.613979 -1.3414264 33.593334 -19.718199 112.59895
44640000000 -17.256323 142.2429 -1.3298687 33.507462 -1.340284 33.542042 -19.799219 112.86944
44650000000 -17.237041 142.01544 -1.3329699 33.444271 -1.3339878 33.422928 -19.774429 113.30631
44660000000 -17.199175 142.41743 -1.334185 33.39006 -1.3383869 33.40712 -19.887449 112.63284
44670000000 -17.118229 142.39262 -1.3331039 33.251911 -1.3356599 33.2743 -19.886198 112.87567
44680000000 -17.079485 142.38045 -1.3367314 33.210274 -1.3402649 33.243389 -19.912136 111.84795
44690000000 -17.086458 142.16869 -1.3340987 33.100468 -1.3373752 33.134666 -19.915474 111.22685
44700000000 -17.033016 142.57207 -1.3394967 33.062035 -1.3419433 33.05806 -19.830505 110.17197
44710000000 -17.047003 142.51401 -1.3379377 32.94738 -1.3463355 32.977127 -19.731581 109.64971
44720000000 -17.002058 142.51443 -1.3440036 32.852554 -1.3384581 32.872787 -19.610573 109.42605
44730000000 -16.997486 143.05214 -1.3466729 32.799019 -1.3457003 32.800098 -19.448503 109.53217
44740000000 -16.974976 142.57664 -1.3447218 32.705952 -1.3480881 32.736282 -19.296162 110.02235
44750000000 -16.987169 142.99667 -1.3443817 32.610973 -1.3504615 32.588642 -19.185617 110.33459
44760000000 -17.006521 142.78905 -1.3430163 32.534702 -1.3465685 32.537262 -19.181784 111.57193
44770000000 -17.02408 142.93086 -1.3440419 32.447994 -1.3535881 32.44157 -19.150526 112.43205
44780000000 -17.048733 142.68825 -1.3423223 32.329842 -1.3493637 32.335205 -19.210581 113.45235
44790000000 -17.087381 142.43393 -1.3454691 32.234863 -1.3489939 32.263767 -19.359749 114.26483
44800000000 -17.119509 142.30479 -1.3375854 32.157978 -1.3510476 32.172432 -19.513552 114.45187
44810000000 -17.099382 142.05682 -1.3405349 32.116444 -1.3435979 32.098343 -19.660929 114.00877
44820000000 -17.068813 141.68089 -1.3463368 32.03191 -1.3458263 31.992577 -19.852547 113.78469
44830000000 -17.064592 140.9621 -1.340235 31.927959 -1.3453625 31.921726 -19.935816 113.65169
44840000000 -17.062977 140.90245 -1.344303 31.841421 -1.3452309 31.870916 -19.974819 112.36378
44850000000 -17.003288 140.34322 -1.339964 31.811586 -1.3417568 31.775993 -19.904028 111.51963
44860000000 -16.930481 140.31136 -1.3389026 31.697508 -1.3452867 31.709648 -19.88863 110.66527
44870000000 -16.861794 140.13068 -1.3415622 31.667763 -1.3452443 31.613558 -19.772884 109.50491
44880000000 -16.782505 139.88336 -1.3441037 31.5993 -1.3469211 31.582224 -19.634399 109.03138
44890000000 -16.665607 139.99898 -1.3450608 31.445951 -1.3507184 31.443432 -19.441065 109.12383
44900000000 -16.63011 140.22829 -1.3494252 31.390276 -1.35149 31.367456 -19.359673 109.15083
44910000000 -16.544064 140.21432 -1.3466923 31.347134 -1.3530462 31.319752 -19.332821 109.83397
44920000000 -16.536882 140.6255 -1.3509028 31.210529 -1.3543005 31.195339 -19.336739 109.98605
44930000000 -16.449591 140.70599 -1.3470129 31.146233 -1.3565891 31.112253 -19.353186 110.65747
44940000000 -16.458393 141.18146 -1.3497967 31.017935 -1.3590461 31.004841 -19.510267 110.95657
44950000000 -16.473442 141.65524 -1.3493527 30.939333 -1.362029 30.914482 -19.492802 110.87289
44960000000 -16.498569 141.72226 -1.352253 30.866705 -1.3517791 30.848188 -19.591757 110.43106
44970000000 -16.519375 141.86157 -1.3500433 30.749348 -1.3505282 30.790503 -19.69536 109.91818
44980000000 -16.579239 141.98219 -1.3476483 30.664217 -1.3502655 30.676702 -19.696205 109.12135
44990000000 -16.580181 141.87573 -1.3453445 30.586418 -1.3434861 30.597141 -19.702845 108.55494
45000000000 -16.554064 142.05986 -1.3472373 30.512262 -1.3501313 30.515541 -19.679424 107.30814
45010000000 -16.59911 142.11288 -1.3485553 30.440733 -1.3515533 30.423725 -19.515631 106.94157
45020000000 -16.605457 141.65486 -1.3442938 30.342276 -1.3480698 30.356152 -19.488592 106.5153
45030000000 -16.584642 141.54877 -1.3490939 30.300732 -1.3531759 30.317261 -19.346031 106.47588
45040000000 -16.552711 141.6487 -1.3479564 30.178194 -1.3566167 30.225988 -19.27949 106.61024
45050000000 -16.574572 141.15579 -1.3489798 30.137857 -1.3555187 30.127768 -19.203814 106.97433
45060000000 -16.580599 141.05682 -1.3525749 30.035212 -1.3554728 30.064318 -19.14308 107.45941
45070000000 -16.569355 140.82707 -1.3467431 29.963371 -1.3522247 29.958309 -19.132233 107.82901
45080000000 -16.550482 140.35582 -1.3489248 29.89579 -1.3577837 29.894684 -19.163649 107.95885
45090000000 -16.568567 140.47902 -1.3576159 29.808268 -1.3581148 29.798763 -19.196211 108.18642
45100000000 -16.500505 139.99896 -1.3546749 29.684109 -1.361928 29.704544 -19.216465 108.47077
45110000000 -16.505104 139.70793 -1.3544348 29.638554 -1.3561858 29.630037 -19.219091 108.09398
45120000000 -16.456097 139.37036 -1.3568629 29.564543 -1.3593738 29.536642 -19.201124 108.15659
45130000000 -16.413702 139.42226 -1.3552411 29.447674 -1.3629313 29.468353 -19.254976 108.15115
45140000000 -16.371777 139.4371 -1.3592811 29.381401 -1.3639432 29.374161 -19.275728 108.00021
45150000000 -16.316952 139.5582 -1.3588223 29.270056 -1.3626659 29.322845 -19.249691 107.6093
45160000000 -16.291647 139.6467 -1.3652928 29.202787 -1.3663813 29.151146 -19.268873 107.92992
45170000000 -16.275114 139.65186 -1.3557816 29.078981 -1.3582653 29.108986 -19.315634 108.25721
45180000000 -16.296741 140.14938 -1.3611052 28.971846 -1.36726 28.986153 -19.250338 107.93969
45190000000 -16.276308 140.35422 -1.357497 28.920742 -1.3664578 28.901936 -19.380102 108.4785
45200000000 -16.304428 140.29153 -1.3634939 28.818966 -1.3631016 28.82168 -19.484825 107.94521
45210000000 -16.357084 140.46239 -1.3601006 28.730484 -1.3711351 28.686937 -19.533741 108.13036
45220000000 -16.379223 140.32335 -1.3553883 28.655823 -1.3646963 28.663176 -19.582506 107.6831
45230000000 -16.420893 140.19763 -1.3616142 28.522984 -1.3659604 28.598034 -19.656549 107.40362
45240000000 -16.405251 140.29703 -1.3615561 28.440599 -1.3642104 28.455059 -19.749601 106.33721
45250000000 -16.40609 139.44455 -1.3578409 28.374132 -1.3622489 28.387629 -19.758028 105.74819
45260000000 -16.393766 138.99939 -1.3587021 28.297117 -1.3602918 28.285625 -19.808105 104.7956
45270000000 -16.304272 138.83568 -1.3582755 28.209185 -1.3604286 28.211988 -19.748011 103.58933
45280000000 -16.203285 138.79349 -1.357475 28.182985 -1.354041 28.183453 -19.682455 102.63027
45290000000 -16.111788 138.38091 -1.3528669 28.103065 -1.355974 28.081999 -19.600365 102.38184
45300000000 -16.024105 138.85867 -1.3607472 27.990074 -1.3607529 28.022467 -19.4692 101.60069
45310000000 -15.990359 139.3315 -1.361135 27.983435 -1.3607724 27.989874 -19.286798 101.10005
45320000000 -15.895596 139.67665 -1.3589926 27.888414 -1.366093 27.899567 -19.180992 100.89763
45330000000 -15.855345 140.05492 -1.3637072 27.826492 -1.3676263 27.831812 -19.100866 101.13808
45340000000 -15.865265 140.52632 -1.3622708 27.72163 -1.3634936 27.713806 -19.013264 100.99381
45350000000 -15.876354 140.79791 -1.3682932 27.661835 -1.3751398 27.649462 -18.958216 101.6103
45360000000 -15.88975 141.40002 -1.3679427 27.557615 -1.3696864 27.524076 -18.964132 101.41916
45370000000 -15.937744 141.40359 -1.3656563 27.440092 -1.3747302 27.462044 -18.968378 102.1852
45380000000 -15.977976 141.41498 -1.3680477 27.339809 -1.3767226 27.383022 -19.048275 102.14116
45390000000 -16.051975 141.50104 -1.3677973 27.255476 -1.3716573 27.247196 -19.015423 102.08295
45400000000 -16.120975 140.97221 -1.3623998 27.159849 -1.3685167 27.170586 -19.087931 102.38011
45410000000 -16.108494 140.62366 -1.3593636 27.097349 -1.3677288 27.113514 -19.202553 102.37218
45420000000 -16.14608 140.70529 -1.363034 26.956366 -1.3706971 26.981197 -19.184967 102.20423
45430000000 -16.127565 140.52271 -1.3693135 26.918457 -1.3744936 26.90074 -19.245253 101.63652
45440000000 -16.09972 140.27127 -1.3652949 26.825777 -1.3699547 26.824282 -19.287275 101.42654
45450000000 -16.073351 140.33621 -1.3695302 26.773188 -1.3705753 26.752117 -19.330812 100.99403
45460000000 -16.131485 140.32088 -1.3653297 26.608347 -1.3706754 26.638235 -19.351234 100.76837
45470000000 -16.058472 140.10881 -1.3660108 26.597431 -1.374208 26.575972 -19.34647 100.59553
45480000000 -16.096729 140.47165 -1.365803 26.482288 -1.3779393 26.450014 -19.335123 100.11076
45490000000 -16.109648 140.15887 -1.3646442 26.358515 -1.3702073 26.372034 -19.362972 99.669273
45500000000 -16.119781 140.62671 -1.3712643 26.254902 -1.3759475 26.287001 -19.299046 99.154602
45510000000 -16.077217 139.9481 -1.3656892 26.183416 -1.3665361 26.241106 -19.31871 98.975708
45520000000 -16.073578 140.1031 -1.3703195 26.126963 -1.3765388 26.083824 -19.298948 98.642715
45530000000 -16.090582 139.86331 -1.3727299 26.008762 -1.3703872 26.053982 -19.248335 98.345276
45540000000 -16.092813 139.80009 -1.3656211 25.927767 -1.3744403 25.988251 -19.231304 97.999382
45550000000 -16.051676 139.29202 -1.3672259 25.872093 -1.3694206 25.893578 -19.227472 97.714058
45560000000 -16.013765 139.41772 -1.3687106 25.775473 -1.3784562 25.809669 -19.251047 97.581177
45570000000 -15.978319 139.23723 -1.3669525 25.755001 -1.3695033 25.706966 -19.274908 96.619881
45580000000 -15.906864 139.45987 -1.3668816 25.642403 -1.3729827 25.639742 -19.248825 95.962906
45590000000 -15.881481 139.62454 -1.3693713 25.57682 -1.3731055 25.620281 -19.15468 95.516357
45600000000 -15.852331 139.89459 -1.3658894 25.476419 -1.3699547 25.468414 -19.168396 94.764961
45610000000 -15.808187 140.01978 -1.3734373 25.423065 -1.3760128 25.424423 -19.144999 94.494995
45620000000 -15.81098 140.34181 -1.3697034 25.324961 -1.3766137 25.306011 -19.09506 94.065323
45630000000 -15.81418 140.70749 -1.3738712 25.211287 -1.3737434 25.215265 -18.950081 93.372299
45640000000 -15.846937 140.85913 -1.3680034 25.085646 -1.3776748 25.090147 -18.899149 92.784248
45650000000 -15.836476 140.8185 -1.3711649 25.060555 -1.3826165 25.047253 -18.716391 93.15052
45660000000 -15.896886 140.46959 -1.3685163 24.965912 -1.3767481 24.960875 -18.604198 93.01519
45670000000 -15.946926 140.588 -1.3683591 24.877577 -1.3777349 24.883749 -18.467133 93.43399
45680000000 -15.937332 140.47269 -1.3727841 24.791212 -1.3806218 24.80229 -18.442381 93.798752
45690000000 -15.913474 139.7729 -1.3682878 24.750755 -1.375456 24.741814 -18.416798 94.2817
45700000000 -15.909292 139.53273 -1.3721689 24.696129 -1.3788676 24.716331 -18.336653 94.586456
45710000000 -15.905797 139.22006 -1.3685681 24.623343 -1.3717154 24.586803 -18.345314 95.2034
45720000000 -15.843157 138.88486 -1.3704025 24.586227 -1.3714343 24.569616 -18.39431 95.534096
45730000000 -15.880303 138.77855 -1.3752997 24.426731 -1.3850369 24.463936 -18.4349 96.239891
45740000000 -15.841706 139.23334 -1.3782803 24.338575 -1.377581 24.341194 -18.494362 96.220192
45750000000 -15.846511 139.05579 -1.3852965 24.205208 -1.3876101 24.242777 -18.623032 96.305847
45760000000 -15.862229 139.04391 -1.3778999 24.125782 -1.382599 24.115162 -18.749477 96.121033
45770000000 -15.913741 139.27197 -1.3841122 24.057539 -1.3823617 24.046221 -18.759235 95.786591
45780000000 -15.91167 138.97325 -1.3805538 23.939978 -1.3791664 23.933069 -18.862482 94.811111
45790000000 -15.931928 139.20016 -1.3805158 23.869362 -1.3858243 23.826902 -18.862017 93.735741
45800000000 -15.960145 138.87711 -1.3813909 23.763124 -1.3880787 23.736795 -18.941584 93.35376
45810000000 -15.985705 138.68202 -1.3767385 23.660513 -1.3809063 23.614233 -18.883972 92.557381
45820000000 -16.007158 138.3777 -1.3781004 23.578568 -1.3738859 23.556555 -18.751747 91.575577
45830000000 -15.950986 138.07347 -1.3800238 23.467846 -1.386753 23.468348 -18.706724 91.809654
45840000000 -15.94946 137.95679 -1.3685716 23.394316 -1.3765455 23.425409 -18.551191 91.10907
45850000000 -15.927769 137.6582 -1.3767393 23.335258 -1.3802878 23.367426 -18.510324 90.929916
45860000000 -15.889026 137.71455 -1.3743526 23.229807 -1.3849411 23.21348 -18.459259 90.897308
45870000000 -15.82035 137.5751 -1.3853674 23.171316 -1.3876475 23.155096 -18.430563 91.292709
45880000000 -15.81172 137.84998 -1.3824517 23.106131 -1.3871577 23.133558 -18.401743 91.156296
45890000000 -15.806059 137.49615 -1.3869218 22.996525 -1.3847382 23.008574 -18.386889 91.492424
45900000000 -15.801909 137.39674 -1.38413 22.947462 -1.3915801 22.938478 -18.393536 91.648064
45910000000 -15.812885 137.75119 -1.3830119 22.795891 -1.3901303 22.79022 -18.45042 90.865829
45920000000 -15.823452 137.93604 -1.3892655 22.756165 -1.3921326 22.735741 -18.414103 90.651329
45930000000 -15.837955 137.52925 -1.3889593 22.679478 -1.3871106 22.651525 -18.477171 90.106934
45940000000 -15.869761 137.32054 -1.3772717 22.570194 -1.3814838 22.576187 -18.4547 89.261856
45950000000 -15.873216 137.11952 -1.3836975 22.435204 -1.3879201 22.456772 -18.426144 88.786438
45960000000 -15.813381 136.8694 -1.3841841 22.371017 -1.3861485 22.435154 -18.381716 88.369286
45970000000 -15.802636 136.54933 -1.3863696 22.292099 -1.3852189 22.319267 -18.231941 87.852226
45980000000 -15.758525 136.48503 -1.3771927 22.242498 -1.3814006 22.270491 -18.171118 87.276794
45990000000 -15.710676 136.54453 -1.3858567 22.153078 -1.3877509 22.204802 -18.097399 87.576935
46000000000 -15.64034 136.60045 -1.388028 22.075916 -1.399524 22.124182 -17.999426 87.652306
46010000000 -15.632121 136.69031 -1.3866795 22.03628 -1.3922281 22.065594 -17.906349 87.806808
46020000000 -15.600214 137.11234 -1.3951354 21.941124 -1.3964306 21.904619 -17.883673 88.116455
46030000000 -15.58075 136.84795 -1.3894964 21.862597 -1.3926138 21.826809 -17.881132 88.192513
46040000000 -15.573827 137.05484 -1.3944309 21.759888 -1.3981161 21.749866 -17.868402 88.665108
46050000000 -15.58142 137.15744 -1.3904155 21.64139 -1.40091 21.66116 -17.912706 88.667053
46060000000 -15.634953 137.2412 -1.387619 21.560925 -1.3896537 21.567059 -17.911732 88.295609
46070000000 -15.654974 136.94586 -1.3879932 21.495094 -1.3916304 21.492819 -17.907307 88.296776
46080000000 -15.676257 136.68692 -1.3906862 21.378653 -1.3978554 21.431355 -17.948652 88.220482
46090000000 -15.733716 136.31256 -1.391129 21.364052 -1.4010701 21.339634 -17.891523 87.998566
46100000000 -15.762191 136.13763 -1.3875026 21.239468 -1.3963988 21.228788 -17.873066 87.595062
46110000000 -15.751058 135.81265 -1.3860198 21.105843 -1.3959097 21.123476 -17.848803 87.187004
46120000000 -15.69948 135.62656 -1.3941348 21.089113 -1.3920048 21.035254 -17.809984 87.189781
46130000000 -15.666742 135.48726 -1.3897649 20.97584 -1.3965991 20.935913 -17.819935 86.752655
46140000000 -15.645973 135.24323 -1.3901057 20.900358 -1.3946208 20.885958 -17.792528 86.712784
46150000000 -15.595543 135.44016 -1.3938015 20.799465 -1.395299 20.784142 -17.73118 86.174149
46160000000 -15.59054 135.37192 -1.3936117 20.715651 -1.3944188 20.704323 -17.678225 86.49247
46170000000 -15.554893 135.37389 -1.3981311 20.611917 -1.4001442 20.60466 -17.712908 85.844063
46180000000 -15.568052 135.47652 -1.3936294 20.550697 -1.3946086 20.534626 -17.60573 85.738953
46190000000 -15.518408 135.73387 -1.3926302 20.458223 -1.4005584 20.458927 -17.590279 84.534004
46200000000 -15.560269 135.87079 -1.386376 20.373405 -1.3975793 20.367989 -17.559578 84.172554
46210000000 -15.582454 135.51743 -1.3985112 20.289053 -1.3947964 20.304108 -17.477448 84.185532
46220000000 -15.595453 135.31592 -1.3925524 20.207638 -1.3971851 20.20122 -17.412439 83.938057
46230000000 -15.594877 135.33505 -1.3913016 20.119465 -1.3972247 20.097094 -17.348162 83.519341
46240000000 -15.596278 135.12997 -1.3931036 19.982269 -1.3984065 19.995718 -17.231697 83.112137
46250000000 -15.597814 134.59961 -1.3953863 19.928038 -1.3983276 19.909101 -17.180937 83.295097
46260000000 -15.535085 134.42134 -1.392169 19.881784 -1.3994857 19.872511 -17.04841 83.000885
46270000000 -15.482265 134.13544 -1.3942946 19.741222 -1.4015495 19.810705 -16.940195 83.151344
46280000000 -15.476145 134.22884 -1.3949788 19.67691 -1.4037781 19.671051 -16.908747 83.179123
46290000000 -15.454945 133.98929 -1.3918658 19.634081 -1.4003175 19.639399 -16.862679 83.480553
46300000000 -15.437317 134.11031 -1.3882266 19.548193 -1.4000388 19.539734 -16.807255 83.440727
46310000000 -15.462969 134.22072 -1.3941405 19.435205 -1.3976057 19.446438 -16.750227 83.626831
46320000000 -15.428728 134.40668 -1.4018537 19.356205 -1.404933 19.37359 -16.80476 83.992645
46330000000 -15.487212 134.16052 -1.4027632 19.293148 -1.4059674 19.315102 -16.794689 83.821548
46340000000 -15.497577 133.93918 -1.4031415 19.205 -1.3971957 19.204838 -16.80135 83.88591
46350000000 -15.564751 133.9019 -1.4006771 19.057678 -1.4023721 19.071569 -16.797556 83.617561
46360000000 -15.615505 133.40054 -1.3945537 18.985376 -1.3999906 18.971859 -16.801691 83.451141
46370000000 -15.594814 133.27789 -1.3954617 18.919086 -1.401306 18.924234 -16.725569 83.284142
46380000000 -15.575742 132.89999 -1.4040492 18.791615 -1.3976611 18.806309 -16.738678 82.743172
46390000000 -15.58229 132.62389 -1.3998408 18.679213 -1.4087356 18.683107 -16.710375 82.864189
46400000000 -15.535314 132.43422 -1.4024864 18.595989 -1.4071391 18.568481 -16.677225 82.567276
46410000000 -15.506787 132.15753 -1.4015895 18.514372 -1.4079934 18.526375 -16.597517 82.525917
46420000000 -15.545842 131.71762 -1.3950495 18.425632 -1.4022058 18.405207 -16.576218 82.593948
46430000000 -15.524223 131.64571 -1.3970422 18.338163 -1.4042963 18.383049 -16.512266 82.883659
46440000000 -15.459147 131.48763 -1.401562 18.239527 -1.4024918 18.270748 -16.527523 82.666573
46450000000 -15.423213 131.26994 -1.4043292 18.138128 -1.4081248 18.171444 -16.471148 82.860756
46460000000 -15.440798 131.56241 -1.4008579 18.080803 -1.4065639 18.071571 -16.424187 82.556091
46470000000 -15.400007 130.92174 -1.4052553 17.963335 -1.4060106 17.999411 -16.430777 82.785248
46480000000 -15.421137 130.80948 -1.4042881 17.93096 -1.4096125 17.916431 -16.374846 82.878609
46490000000 -15.437077 130.57068 -1.4070199 17.86051 -1.4058801 17.821274 -16.340435 82.477257
46500000000 -15.426273 130.1319 -1.4022638 17.722616 -1.4134593 17.786678 -16.270567 82.525116
46510000000 -15.376096 130.20967 -1.4056332 17.676067 -1.4122516 17.647095 -16.281507 82.091644
46520000000 -15.370524 129.82436 -1.4097701 17.585241 -1.4031984 17.594704 -16.243376 81.848343
46530000000 -15.301042 129.73685 -1.4066125 17.552567 -1.4094081 17.545269 -16.22262 81.778214
46540000000 -15.316381 129.37206 -1.4092941 17.416628 -1.4079003 17.393305 -16.221695 81.485374
46550000000 -15.254956 129.42908 -1.3998619 17.312759 -1.4039716 17.342981 -16.142653 81.169571
46560000000 -15.190142 129.48987 -1.4091688 17.202669 -1.4168432 17.194468 -16.101509 80.913597
46570000000 -15.201545 129.57707 -1.409475 17.143911 -1.4147911 17.160294 -15.980557 80.678864
46580000000 -15.172351 129.65858 -1.4069114 17.022079 -1.4114264 16.988815 -15.982394 80.49617
46590000000 -15.164 129.51227 -1.3994299 16.939693 -1.4049699 16.939123 -15.931588 80.366989
46600000000 -15.156584 129.54076 -1.4091352 16.853174 -1.4146502 16.85619 -15.841714 80.593765
46610000000 -15.190525 129.74525 -1.4108998 16.754864 -1.4189343 16.782427 -15.716197 80.430489
46620000000 -15.169706 129.67738 -1.4104491 16.683443 -1.4199907 16.742413 -15.678561 80.543289
46630000000 -15.164378 129.34097 -1.4076455 16.545038 -1.4149206 16.589912 -15.682439 80.543358
46640000000 -15.15306 129.30431 -1.4114645 16.526829 -1.4169871 16.556141 -15.57827 80.576775
46650000000 -15.172521 128.75723 -1.4160749 16.482441 -1.416633 16.481035 -15.57341 80.860435
46660000000 -15.203872 128.62772 -1.4117256 16.370136 -1.4235305 16.374346 -15.557734 80.921921
46670000000 -15.247419 128.15073 -1.4149532 16.257523 -1.4196162 16.241928 -15.506364 81.212692
46680000000 -15.194288 127.85491 -1.413722 16.200274 -1.4186612 16.203733 -15.506338 81.236748
46690000000 -15.190648 127.55173 -1.4170481 16.147318 -1.4191493 16.104992 -15.43668 81.440025
46700000000 -15.171905 127.16859 -1.4129881 16.06584 -1.4252118 16.018007 -15.438498 81.357758
46710000000 -15.139083 127.11282 -1.4157643 15.946743 -1.4189024 15.939035 -15.392771 81.253929
46720000000 -15.136728 126.65511 -1.4159286 15.798073 -1.420872 15.830296 -15.425402 81.152145
46730000000 -15.124397 126.28304 -1.4160781 15.807699 -1.421796 15.822947 -15.360674 81.275146
46740000000 -15.094298 126.32516 -1.4126135 15.704653 -1.4247314 15.684547 -15.347947 80.960854
46750000000 -15.055736 125.80215 -1.4175187 15.580152 -1.4240278 15.600541 -15.348512 81.107224
46760000000 -15.076501 125.48809 -1.4238592 15.5488 -1.4245121 15.556457 -15.263194 81.203705
46770000000 -15.053282 125.31825 -1.4158806 15.434496 -1.4201629 15.401599 -15.232234 81.079292
46780000000 -15.024845 125.18189 -1.4211373 15.292959 -1.4223475 15.370472 -15.219731 81.090637
46790000000 -14.996124 124.86408 -1.4147162 15.238948 -1.4176421 15.248162 -15.148497 81.142929
46800000000 -14.939847 124.92553 -1.4159222 15.093393 -1.4198065 15.137595 -15.142819 80.917389
46810000000 -14.928702 124.46571 -1.4159831 15.007082 -1.4244219 15.040259 -15.164701 81.170235
46820000000 -14.903582 124.48562 -1.4151884 14.983913 -1.4232976 14.96718 -15.128623 80.846413
46830000000 -14.881852 124.14124 -1.4279258 14.875807 -1.4296165 14.871503 -15.126595 80.678452
46840000000 -14.853795 124.24785 -1.422099 14.809286 -1.4218509 14.815046 -15.105905 80.378891
46850000000 -14.842358 124.36936 -1.4245093 14.662171 -1.4325913 14.703717 -15.112343 80.514496
46860000000 -14.818131 124.24463 -1.4312977 14.577343 -1.4371043 14.57574 -15.059284 80.111366
46870000000 -14.847565 124.12537 -1.4190882 14.507967 -1.4262017 14.518918 -14.989621 80.000595
46880000000 -14.824426 124.21214 -1.4290397 14.355695 -1.4310464 14.386042 -14.943537 79.89016
46890000000 -14.77822 123.67824 -1.4318966 14.277183 -1.4367349 14.312416 -14.93394 79.847931
46900000000 -14.818018 123.34921 -1.4296398 14.1696 -1.434275 14.240359 -14.831944 79.676468
46910000000 -14.781279 122.95863 -1.4351406 14.12392 -1.4391774 14.132409 -14.777627 79.777191
46920000000 -14.75704 123.09544 -1.4245718 14.062845 -1.430245 14.041779 -14.694685 79.205399
46930000000 -14.767083 122.79817 -1.4322644 13.895335 -1.4388191 13.913935 -14.636632 79.524704
46940000000 -14.728363 122.5086 -1.4316633 13.860545 -1.4360499 13.841247 -14.597711 79.436584
46950000000 -14.724285 122.21976 -1.4295193 13.776633 -1.4362618 13.765425 -14.532264 79.877045
46960000000 -14.649727 121.91776 -1.4310457 13.690849 -1.4318112 13.667107 -14.528316 79.794685
46970000000 -14.67687 121.99785 -1.4391013 13.587857 -1.4401002 13.583882 -14.447917 80.050056
46980000000 -14.646504 121.52702 -1.4344999 13.462829 -1.4352411 13.49504 -14.483042 80.172447
46990000000 -14.636243 121.29292 -1.4326763 13.453252 -1.4387368 13.454988 -14.435809 80.283585
47000000000 -14.585786 121.03254 -1.4338393 13.369585 -1.4386796 13.390339 -14.433997 80.310295
47010000000 -14.558517 121.14481 -1.4400331 13.249557 -1.4494183 13.272185 -14.384934 80.261856
47020000000 -14.548467 120.6396 -1.4404259 13.157448 -1.4409088 13.165918 -14.37475 80.506241
47030000000 -14.511144 120.2843 -1.4355142 13.054502 -1.4394454 13.099885 -14.315223 80.574905
47040000000 -14.495193 120.15919 -1.4411004 12.994045 -1.4444882 13.003653 -14.298885 80.653992
47050000000 -14.436937 119.88257 -1.4362366 12.920875 -1.4416993 12.960034 -14.290302 80.644417
47060000000 -14.437006 119.81713 -1.436376 12.807208 -1.4415686 12.837602 -14.250494 80.811111
47070000000 -14.376616 119.5772 -1.4362658 12.733535 -1.4388133 12.715998 -14.203696 80.853004
47080000000 -14.311368 119.41986 -1.4440001 12.667145 -1.4480141 12.69208 -14.216923 81.089638
47090000000 -14.331614 119.49818 -1.4374214 12.628839 -1.4402852 12.635995 -14.180998 81.001282
47100000000 -14.325985 119.76241 -1.4366539 12.485252 -1.4469607 12.524166 -14.190112 80.806419
47110000000 -14.295411 119.66926 -1.4464933 12.436442 -1.4461972 12.470907 -14.253745 81.038956
47120000000 -14.325238 119.86859 -1.4373317 12.420137 -1.441249 12.4101 -14.232107 80.664513
47130000000 -14.3349 119.88904 -1.4402344 12.313928 -1.4499002 12.289307 -14.254265 80.72213
47140000000 -14.365503 119.85425 -1.442768 12.200991 -1.4466161 12.17509 -14.231622 80.034721
47150000000 -14.385001 119.52032 -1.4387206 12.159938 -1.4472598 12.170675 -14.262624 79.954056
47160000000 -14.442739 119.50875 -1.4420954 12.076711 -1.4440037 12.023824 -14.218177 79.628036
47170000000 -14.452501 119.24112 -1.4400209 11.933678 -1.4515476 11.956738 -14.170125 79.197929
47180000000 -14.472912 118.5497 -1.443658 11.847502 -1.4437908 11.863717 -14.12703 78.840935
47190000000 -14.477968 117.84024 -1.4392329 11.783028 -1.4441441 11.790851 -13.98984 79.041016
47200000000 -14.428199 117.38661 -1.4527146 11.642447 -1.4526523 11.647302 -14.01851 79.000259
47210000000 -14.395915 117.22675 -1.4567837 11.518803 -1.4570277 11.548347 -13.908944 79.175461
47220000000 -14.350738 116.77145 -1.4488711 11.46104 -1.449525 11.498659 -13.818794 79.321045
47230000000 -14.257969 116.01803 -1.4456295 11.414515 -1.448487 11.364599 -13.837887 79.587257
47240000000 -14.250209 115.94831 -1.4478523 11.258629 -1.4487208 11.255598 -13.770379 79.7547
47250000000 -14.178045 116.11433 -1.4462311 11.188439 -1.4485037 11.184695 -13.707425 79.850464
47260000000 -14.144812 115.63505 -1.452081 11.08958 -1.4544054 11.144773 -13.693602 80.292213
47270000000 -14.096252 115.70728 -1.4547018 11.00248 -1.4585599 10.994633 -13.7068 80.296303
47280000000 -14.07545 115.4296 -1.4512757 10.895737 -1.4472984 10.944036 -13.715315 80.445099
47290000000 -14.086662 115.61144 -1.4512851 10.850742 -1.4545846 10.849904 -13.690236 80.196533
47300000000 -14.027698 115.43066 -1.4581738 10.727826 -1.459945 10.726943 -13.704312 80.087959
47310000000 -13.989831 115.27875 -1.4519515 10.66221 -1.4602392 10.659966 -13.657781 80.209023
47320000000 -14.02195 115.10167 -1.4587243 10.540613 -1.4644437 10.572354 -13.609377 80.113205
47330000000 -13.991173 114.87052 -1.4592795 10.491448 -1.4578443 10.502318 -13.588593 79.937798
47340000000 -13.956654 114.62649 -1.4572797 10.397654 -1.459269 10.410976 -13.527361 79.954681
47350000000 -13.960829 114.37686 -1.4584048 10.30317 -1.4575557 10.334092 -13.452975 80.097656
47360000000 -13.910504 114.32042 -1.4561002 10.272991 -1.4614658 10.258221 -13.428071 80.239212
47370000000 -13.896232 114.24751 -1.4500487 10.180143 -1.458052 10.181948 -13.409328 80.348984
47380000000 -13.899578 114.00294 -1.4508107 10.08368 -1.4531584 10.104832 -13.414201 80.90551
47390000000 -13.883508 113.95424 -1.4458566 9.9490166 -1.4508725 9.9949007 -13.444591 81.095039
47400000000 -13.86592 113.74837 -1.4537611 9.8794508 -1.456038 9.9002104 -13.421849 81.235031
47410000000 -13.879454 113.78653 -1.453017 9.8114309 -1.4615546 9.8233347 -13.475029 81.407501
47420000000 -13.943947 113.56841 -1.4571668 9.7265968 -1.456076 9.7416229 -13.481914 81.4748
47430000000 -13.895227 113.36289 -1.4585892 9.6246367 -1.4625634 9.6092234 -13.528947 81.122162
47440000000 -13.908755 113.12721 -1.4587449 9.5538979 -1.4645895 9.5331984 -13.53353 81.049652
47450000000 -13.946637 112.70548 -1.4506954 9.4471321 -1.4618522 9.3972149 -13.513026 80.560654
47460000000 -13.952256 112.38683 -1.4528849 9.3621016 -1.4630662 9.330698 -13.493373 80.324776
47470000000 -13.929789 111.87281 -1.4580879 9.2498713 -1.4607707 9.2365026 -13.460178 80.099419
47480000000 -13.907537 111.19939 -1.4554068 9.1286983 -1.4599899 9.1338835 -13.393583 79.975479
47490000000 -13.806707 111.23018 -1.4662443 9.0215588 -1.4695528 9.0480804 -13.382958 79.673134
47500000000 -13.781893 110.65232 -1.4611433 8.920681 -1.46901 8.9635448 -13.305805 79.814865
47510000000 -13.716225 110.47484 -1.4614861 8.8522654 -1.468166 8.8475065 -13.275942 79.680809
47520000000 -13.658356 110.12451 -1.461373 8.7842951 -1.4654434 8.7666769 -13.199969 79.984955
47530000000 -13.590652 110.03979 -1.4716072 8.6941671 -1.4690183 8.6941195 -13.22267 80.197792
47540000000 -13.519996 109.96693 -1.4724617 8.596652 -1.4744071 8.5788183 -13.199847 80.483521
47550000000 -13.50033 109.84526 -1.4725358 8.5743847 -1.4693269 8.5742283 -13.158274 80.370102
47560000000 -13.460871 110.02026 -1.4668612 8.4640875 -1.4701381 8.444438 -13.190187 80.395424
47570000000 -13.399573 110.02853 -1.4732779 8.3191004 -1.4784843 8.3207331 -13.193569 80.214302
47580000000 -13.394763 110.09585 -1.4677666 8.2585077 -1.4709185 8.2582254 -13.190494 79.951538
47590000000 -13.384253 110.1 -1.4733092 8.1466417 -1.4774605 8.1324263 -13.166111 79.796402
47600000000 -13.36409 109.93214 -1.4656785 8.0796413 -1.4737554 8.0715246 -13.16294 79.515198
47610000000 -13.340394 110.02834 -1.4744024 7.9902096 -1.4786112 7.9794564 -13.08717 79.518341
47620000000 -13.301459 109.90482 -1.4693396 7.8921599 -1.4787247 7.9103103 -13.028847 79.319687
47630000000 -13.295619 110.16711 -1.4706225 7.7925596 -1.4712284 7.8134899 -12.976724 79.081818
47640000000 -13.249361 110.01595 -1.4798609 7.7115321 -1.476504 7.6869121 -12.929335 79.748016
47650000000 -13.249978 110.01591 -1.4764094 7.5927677 -1.4817411 7.621376 -12.906507 79.595993
47660000000 -13.24983 110.04463 -1.4746616 7.5500202 -1.4811014 7.5707841 -12.856836 79.841583
47670000000 -13.264918 110.00844 -1.4733837 7.4321995 -1.4799228 7.4347248 -12.908448 80.168442
47680000000 -13.273976 110.07612 -1.4738986 7.3363504 -1.4787651 7.3708868 -12.878003 80.271782
47690000000 -13.289398 109.95752 -1.4771647 7.3219852 -1.4838564 7.3149395 -12.905364 80.374519
47700000000 -13.308905 109.65157 -1.4750171 7.2162886 -1.4801495 7.202888 -13.010809 80.466484
47710000000 -13.3474 109.45622 -1.4763359 7.0870118 -1.4807439 7.1060491 -13.027317 80.297821
47720000000 -13.369641 109.13027 -1.4860653 7.0156698 -1.4821577 7.0202284 -13.077622 79.854637
47730000000 -13.330282 108.92636 -1.4792688 6.9160595 -1.4835038 6.9506617 -13.102474 79.432808
47740000000 -13.313807 108.58688 -1.4790868 6.8454695 -1.4848394 6.8414097 -13.094605 78.744362
47750000000 -13.288899 108.25135 -1.4882976 6.714869 -1.4952277 6.7168875 -13.058379 78.405243
47760000000 -13.271206 107.93446 -1.4902424 6.5774899 -1.4955605 6.584168 -13.012219 77.796608
47770000000 -13.201234 107.63242 -1.4883202 6.5518999 -1.492209 6.5422359 -12.916245 77.483414
47780000000 -13.120934 107.56644 -1.497612 6.4120131 -1.4944845 6.4261489 -12.833678 77.245796
47790000000 -13.078266 107.42596 -1.4842743 6.347105 -1.4906667 6.3321748 -12.709413 76.951469
47800000000 -13.045573 107.53048 -1.4925137 6.1850443 -1.4917096 6.2592735 -12.616448 77.140991
47810000000 -12.995452 107.36472 -1.4900017 6.1603127 -1.4906824 6.1931438 -12.532295 77.412689
47820000000 -12.991996 107.42013 -1.4903194 6.0220785 -1.4927466 6.0394897 -12.505909 77.838608
47830000000 -12.965339 107.49938 -1.4939193 5.9398613 -1.5006609 5.9307737 -12.482559 78.266632
47840000000 -12.939317 107.47717 -1.494701 5.8743114 -1.4991771 5.9007344 -12.472639 78.551781
47850000000 -12.960383 107.3558 -1.4991691 5.7504053 -1.5021096 5.7645168 -12.475132 79.169273
47860000000 -12.972177 107.37817 -1.4942555 5.7234035 -1.5001844 5.7280021 -12.512977 79.160004
47870000000 -12.987812 107.04714 -1.4981861 5.58178 -1.4973935 5.6091557 -12.514148 79.167854
47880000000 -12.980248 106.89668 -1.4996506 5.5268068 -1.5066904 5.5254364 -12.546498 79.052521
47890000000 -12.979022 106.49035 -1.4994751 5.4072671 -1.5045186 5.4003577 -12.597181 78.835129
47900000000 -12.944459 106.18137 -1.5000988 5.3523135 -1.5043828 5.3461084 -12.59517 78.570641
47910000000 -12.927524 106.14764 -1.5010841 5.2982125 -1.5032457 5.2836947 -12.576088 78.08725
47920000000 -12.902018 105.89608 -1.504755 5.196609 -1.51305 5.1646996 -12.561009 77.977455
47930000000 -12.872426 105.71813 -1.4996589 5.0814581 -1.5066062 5.0921688 -12.53779 77.601563
47940000000 -12.87134 105.69122 -1.4993255 4.963583 -1.5056843 5.0323687 -12.481735 77.508011
47950000000 -12.859521 105.58524 -1.5020918 4.8828444 -1.5095757 4.9394274 -12.404016 77.465775
47960000000 -12.838731 105.52256 -1.5127434 4.8300133 -1.5159082 4.8356881 -12.376598 77.586906
47970000000 -12.816586 105.46144 -1.5051596 4.7171297 -1.5121479 4.7007384 -12.378459 77.705956
47980000000 -12.821249 105.38352 -1.5015501 4.6172299 -1.5080987 4.6339278 -12.357267 77.608055
47990000000 -12.822293 105.2171 -1.5066025 4.5211315 -1.5052346 4.5465279 -12.35113 77.697678
48000000000 -12.823607 104.93913 -1.5142505 4.406805 -1.5175402 4.4230766 -12.340414 77.890457
48010000000 -12.786559 104.81216 -1.5058384 4.3405581 -1.5079046 4.3549337 -12.338008 77.802658
48020000000 -12.803527 104.6125 -1.513146 4.2439137 -1.51298 4.2246609 -12.367247 77.755531
48030000000 -12.770449 104.29699 -1.5113889 4.1380134 -1.517679 4.1583014 -12.379629 77.508057
48040000000 -12.75957 103.92258 -1.5158198 4.0219331 -1.5135854 4.0769801 -12.313144 77.373596
48050000000 -12.727086 103.88127 -1.5148859 3.9791009 -1.5174892 3.9943221 -12.317553 76.952957
48060000000 -12.686964 103.61286 -1.5184052 3.8921347 -1.5238297 3.9076161 -12.240892 77.023956
48070000000 -12.665494 103.51681 -1.5206997 3.7958012 -1.5222901 3.7978899 -12.211556 76.818443
48080000000 -12.641089 103.36915 -1.5204595 3.7074749 -1.5175399 3.7239835 -12.139002 76.796295
48090000000 -12.63143 103.41355 -1.5230066 3.5717802 -1.5257739 3.5975769 -12.080643 76.825958
48100000000 -12.622663 103.15833 -1.5245283 3.4957125 -1.5220256 3.4838743 -12.072887 77.04052
48110000000 -12.611848 102.90659 -1.524882 3.37114 -1.5277286 3.3856544 -12.036684 77.133789
48120000000 -12.59805 102.77122 -1.5226107 3.3092134 -1.5263643 3.330842 -12.009049 77.343788
48130000000 -12.570662 102.35096 -1.5225618 3.2680361 -1.5252042 3.2300966 -12.042272 77.487274
48140000000 -12.550387 102.07161 -1.5164089 3.1601176 -1.5289943 3.1612527 -12.046631 77.684143
48150000000 -12.519165 101.98602 -1.529019 3.0090115 -1.5315762 2.9981194 -12.086898 77.831734
48160000000 -12.474749 101.69108 -1.5253119 2.981463 -1.5298767 2.9437742 -12.099505 77.405136
48170000000 -12.43315 101.6908 -1.525533 2.8531296 -1.5357236 2.8884449 -12.087439 77.256897
48180000000 -12.402018 101.54398 -1.5230716 2.7883606 -1.5325052 2.8074698 -12.074083 76.977936
48190000000 -12.361773 101.58841 -1.5248533 2.6357255 -1.5381663 2.6807234 -12.056755 76.782158
48200000000 -12.3507 101.46774 -1.5266615 2.55479 -1.5325994 2.6053579 -12.036604 76.430573
48210000000 -12.299188 101.63039 -1.5336853 2.5032747 -1.5390019 2.5133436 -11.956647 76.251076
48220000000 -12.288149 101.59414 -1.5309386 2.392765 -1.5370126 2.4022291 -11.914667 76.001106
48230000000 -12.287014 101.46023 -1.5312141 2.2940381 -1.5407478 2.3063903 -11.851652 76.282478
48240000000 -12.307655 101.4256 -1.5338371 2.2005069 -1.5416924 2.1748846 -11.792778 76.300858
48250000000 -12.280332 101.1401 -1.5367866 2.0951507 -1.5404521 2.1255398 -11.773024 76.50106
48260000000 -12.269888 100.99002 -1.535405 1.975149 -1.5425501 2.0175407 -11.74262 76.79007
48270000000 -12.290867 100.69221 -1.536027 1.860925 -1.5409781 1.8764976 -11.761265 77.121033
48280000000 -12.284119 100.28368 -1.5300958 1.779351 -1.5403894 1.7994232 -11.77126 77.060493
48290000000 -12.232261 99.800446 -1.5334023 1.7314048 -1.5487905 1.7203773 -11.801531 77.141418
48300000000 -12.199904 99.495407 -1.5409552 1.6213968 -1.5535599 1.6480267 -11.82962 76.99012
48310000000 -12.148059 99.343323 -1.5470318 1.4951549 -1.5523751 1.5257205 -11.829921 76.629211
48320000000 -12.070215 99.127571 -1.5515528 1.4263324 -1.5551268 1.4253279 -11.842717 76.334023
48330000000 -12.031321 99.010933 -1.5586977 1.303879 -1.5565609 1.3247913 -11.824854 75.834061
48340000000 -11.973922 99.02887 -1.5477111 1.2131436 -1.5555522 1.2179143 -11.803999 75.444077
48350000000 -11.930696 99.177048 -1.5584483 1.1057941 -1.5583487 1.1401449 -11.716489 75.103416
48360000000 -11.900623 99.191231 -1.5595292 1.0035083 -1.5588346 1.0329205 -11.64252 74.784248
48370000000 -11.87456 99.100395 -1.5607489 0.93474233 -1.5634191 0.96169311 -11.582706 74.552383
48380000000 -11.831351 99.082832 -1.5568261 0.82052499 -1.5674088 0.84844148 -11.485173 74.558411
48390000000 -11.829016 99.019234 -1.5616019 0.71923459 -1.5666126 0.75173706 -11.429846 74.663269
48400000000 -11.81328 98.819839 -1.5656528 0.6538837 -1.5692058 0.62794572 -11.3959 75.017906
48410000000 -11.790456 98.593285 -1.5655682 0.51959729 -1.5715507 0.58808094 -11.34866 75.37291
48420000000 -11.759341 98.430901 -1.5742093 0.46045315 -1.5787055 0.50151581 -11.338909 75.544502
48430000000 -11.72368 98.342293 -1.5763687 0.39680949 -1.5766009 0.43397316 -11.323651 75.451202
48440000000 -11.682561 98.126602 -1.5734105 0.2842868 -1.5819312 0.31409964 -11.31627 75.429932
48450000000 -11.626419 98.178398 -1.5839964 0.14241825 -1.5869323 0.17269853 -11.335673 75.53717
48460000000 -11.601451 97.809387 -1.5734038 0.12972888 -1.5797974 0.11939723 -11.333374 75.253212
48470000000 -11.551041 97.821686 -1.5800477 0.013725076 -1.5847983 0.012418962 -11.301355 75.168983
48480000000 -11.520825 97.848373 -1.5778817 -0.077722609 -1.5805997 -0.054648526 -11.283049 75.008942
48490000000 -11.509245 98.199295 -1.5808512 -0.18785933 -1.5853715 -0.21048093 -11.249846 74.822311
48500000000 -11.469852 98.127937 -1.5871667 -0.22584954 -1.5911971 -0.2173592 -11.20568 74.455109
48510000000 -11.497796 98.064751 -1.5828248 -0.396851 -1.5845309 -0.39653343 -11.16255 74.56292
48520000000 -11.516273 97.921326 -1.5862247 -0.44798869 -1.5902989 -0.45155993 -11.092463 74.615341
48530000000 -11.513041 97.653061 -1.5890155 -0.50603801 -1.5918047 -0.53184098 -11.050581 74.677101
48540000000 -11.497909 97.629189 -1.5887114 -0.62776434 -1.5971403 -0.65110809 -11.042073 74.816223
48550000000 -11.496851 97.324104 -1.5855907 -0.75623149 -1.5927296 -0.72378922 -11.040232 75.02636
48560000000 -11.460032 96.96093 -1.6007168 -0.8708775 -1.6025869 -0.85585278 -11.04395 75.259094
48570000000 -11.435815 96.595718 -1.5985498 -0.98632085 -1.6048129 -0.95469373 -11.05312 75.495049
48580000000 -11.391105 96.114517 -1.6030006 -1.0581143 -1.6047487 -1.0415061 -11.044104 75.41404
48590000000 -11.337501 95.987411 -1.6014459 -1.1322246 -1.6090113 -1.1490661 -11.050209 75.307167
48600000000 -11.305108 95.994347 -1.6053983 -1.2543986 -1.6088043 -1.2492607 -11.088511 75.235207
48610000000 -11.24984 95.939064 -1.6092284 -1.3438274 -1.6098902 -1.3404123 -11.078649 74.96801
48620000000 -11.20924 95.918434 -1.6061046 -1.4537612 -1.6093194 -1.4280514 -11.080434 74.581238
48630000000 -11.142972 96.023415 -1.6117905 -1.496893 -1.6087848 -1.4903581 -11.074931 74.216484
48640000000 -11.113806 96.192139 -1.6127042 -1.6013798 -1.612479 -1.6076995 -11.058834 73.697021
48650000000 -11.101301 96.31945 -1.6167972 -1.7011317 -1.6179937 -1.6480145 -11.008728 73.356956
48660000000 -11.117058 96.277161 -1.6105833 -1.7776761 -1.6193051 -1.7742072 -10.962613 73.314369
48670000000 -11.117342 96.329842 -1.6171161 -1.8761361 -1.6249738 -1.8646594 -10.888739 73.010361
48680000000 -11.110051 95.94735 -1.6217115 -1.9275026 -1.6255218 -1.9177532 -10.822329 72.935341
48690000000 -11.09204 95.774643 -1.6262467 -2.0759318 -1.62652 -2.0159473 -10.762437 72.679794
48700000000 -11.085903 95.451164 -1.6294171 -2.1665502 -1.6324699 -2.1649079 -10.695166 72.856598
48710000000 -11.059357 95.166672 -1.6289235 -2.223366 -1.6331699 -2.2581115 -10.666209 72.834724
48720000000 -11.031288 94.774719 -1.6306618 -2.3493681 -1.6365095 -2.3200843 -10.618925 72.864159
48730000000 -10.966956 94.64444 -1.6406254 -2.4474881 -1.6423831 -2.4136343 -10.565883 72.928864
48740000000 -10.91569 94.353775 -1.6359394 -2.5141096 -1.6402538 -2.4745533 -10.534761 72.967239
48750000000 -10.88929 94.164742 -1.6430844 -2.6185348 -1.6424217 -2.6057436 -10.500241 73.141708
48760000000 -10.831811 94.205673 -1.6434325 -2.7257278 -1.6515837 -2.714726 -10.486909 73.201355
48770000000 -10.797707 94.18428 -1.6430463 -2.7983167 -1.6482249 -2.8140581 -10.465673 73.253723
48780000000 -10.773454 94.066963 -1.6467153 -2.9062088 -1.6497133 -2.9030657 -10.445127 73.008156
48790000000 -10.781567 93.99324 -1.6490525 -3.0162106 -1.6507447 -2.9956732 -10.400226 73.125374
48800000000 -10.76462 93.945625 -1.6487218 -3.1007967 -1.6555191 -3.0783219 -10.408868 73.186409
48810000000 -10.771898 93.722702 -1.6479129 -3.2001421 -1.6588771 -3.1751158 -10.371207 72.948425
48820000000 -10.71945 93.444687 -1.6572939 -3.3033807 -1.6609868 -3.2660465 -10.338074 73.116005
48830000000 -10.713256 93.229744 -1.6616201 -3.3655577 -1.6638206 -3.3479626 -10.311948 72.959099
48840000000 -10.688518 92.842117 -1.6632838 -3.4818842 -1.6654905 -3.4629924 -10.285398 72.946388
48850000000 -10.635264 92.563454 -1.6709802 -3.5718482 -1.676093 -3.5508406 -10.255382 73.080482
48860000000 -10.596846 92.211174 -1.6704406 -3.6246316 -1.6762506 -3.6579287 -10.227715 73.048927
48870000000 -10.541493 92.012894 -1.6744328 -3.7518549 -1.6834925 -3.7351701 -10.207124 73.090439
48880000000 -10.476992 91.887978 -1.673831 -3.8715904 -1.6764452 -3.8451409 -10.163085 73.118652
48890000000 -10.413164 91.994629 -1.6767952 -3.9269464 -1.6798887 -3.9008265 -10.152246 73.124001
48900000000 -10.367548 91.893547 -1.6784872 -4.0820351 -1.6796974 -4.0117164 -10.153306 73.114281
48910000000 -10.327805 91.939987 -1.6804825 -4.0801044 -1.6856897 -4.1254559 -10.11567 72.94104
48920000000 -10.268813 92.036507 -1.6889114 -4.2417693 -1.6924485 -4.220695 -10.117452 72.9561
48930000000 -10.252114 92.236969 -1.6842982 -4.3334665 -1.6926905 -4.2976131 -10.1218 72.909904
48940000000 -10.192727 92.247726 -1.6892598 -4.4339952 -1.6951207 -4.3997593 -10.082133 72.627739
48950000000 -10.209905 92.241013 -1.6922517 -4.5317144 -1.6999682 -4.5290489 -10.071338 72.61306
48960000000 -10.184899 92.124336 -1.6967429 -4.6048088 -1.6988431 -4.5692272 -10.033202 72.245865
48970000000 -10.161472 92.163971 -1.701556 -4.7103682 -1.7010206 -4.7009692 -10.02 72.13855
48980000000 -10.145265 91.986717 -1.6993864 -4.7566252 -1.7046722 -4.7687788 -9.9812765 71.878754
48990000000 -10.126753 91.893814 -1.702824 -4.8785415 -1.7053783 -4.8435636 -9.9255524 71.739044
49000000000 -10.100088 91.835159 -1.7000973 -4.9225073 -1.7114303 -4.9542623 -9.9027023 71.546844
49010000000 -10.05548 91.771324 -1.7123821 -5.0463829 -1.7075915 -5.0772676 -9.8567142 71.463913
49020000000 -10.024821 91.717888 -1.7092266 -5.1691599 -1.7140442 -5.1161094 -9.8255196 71.46096
49030000000 -10.023092 91.67424 -1.7133037 -5.2104998 -1.7167274 -5.1918149 -9.7942219 71.350121
49040000000 -9.9939585 91.679993 -1.7215165 -5.3499269 -1.7224554 -5.3713703 -9.7712145 71.444466
49050000000 -10.00139 91.490051 -1.7206558 -5.3769479 -1.7214452 -5.425179 -9.7602272 71.379272
49060000000 -9.9613447 91.476761 -1.7192303 -5.4927936 -1.7276176 -5.4965987 -9.7108879 71.276405
49070000000 -9.9607124 91.332962 -1.7241256 -5.6322765 -1.7326764 -5.6119881 -9.6898994 71.17173
49080000000 -9.9450712 91.161552 -1.7306033 -5.706727 -1.7249119 -5.725441 -9.661006 71.077316
49090000000 -9.9363432 90.939766 -1.7335877 -5.840796 -1.7380222 -5.8368073 -9.6227694 70.882576
49100000000 -9.9048195 90.694458 -1.7437088 -5.8952079 -1.7425978 -5.8684664 -9.5667782 70.816635
49110000000 -9.8757877 90.422005 -1.746359 -6.0356336 -1.7592233 -6.0000019 -9.5468884 70.709282
49120000000 -9.852931 90.153694 -1.7423279 -6.0411949 -1.7459657 -6.0450096 -9.4705 70.642471
49130000000 -9.808753 89.898674 -1.7514256 -6.1814322 -1.7505188 -6.1856775 -9.4481096 70.801582
49140000000 -9.7458076 89.639954 -1.7543724 -6.305512 -1.7578768 -6.2633262 -9.4068308 70.882492
49150000000 -9.708602 89.548111 -1.7612468 -6.3430748 -1.7604582 -6.3393512 -9.3315706 70.947235
49160000000 -9.6522522 89.459778 -1.7563975 -6.4431872 -1.7679796 -6.4510674 -9.3150883 71.044403
49170000000 -9.6037903 89.481964 -1.7585644 -6.525413 -1.7730826 -6.5414524 -9.2932987 71.135208
49180000000 -9.5774059 89.397461 -1.7635323 -6.6195335 -1.7660234 -6.6103935 -9.2795372 71.42511
49190000000 -9.5446978 89.410576 -1.7705399 -6.692894 -1.7703699 -6.6665559 -9.2907629 71.445366
49200000000 -9.5295248 89.429512 -1.7705952 -6.8010926 -1.7742505 -6.8124771 -9.2691431 71.463638
49210000000 -9.5167608 89.335594 -1.7687973 -6.8904214 -1.776212 -6.8576655 -9.2874966 71.317558
49220000000 -9.4930925 89.306625 -1.7704411 -7.0026708 -1.7754409 -6.9757895 -9.2937946 71.125496
49230000000 -9.4754953 89.260315 -1.7807056 -7.0579963 -1.7823472 -7.0594964 -9.2618704 71.00898
49240000000 -9.4473734 89.06572 -1.7734113 -7.1881747 -1.7871897 -7.1508932 -9.2748194 70.771049
49250000000 -9.4120426 88.728081 -1.7830434 -7.2699714 -1.789315 -7.2682877 -9.2290745 70.452492
49260000000 -9.395752 88.697624 -1.7885388 -7.3491778 -1.7921807 -7.3470469 -9.1859398 70.364021
49270000000 -9.35392 88.344109 -1.789202 -7.4212933 -1.7913493 -7.4355574 -9.1426105 70.206924
49280000000 -9.3245068 88.304657 -1.7903239 -7.5132322 -1.7961404 -7.5179715 -9.0842667 70.078598
49290000000 -9.2758493 88.169716 -1.8001179 -7.609273 -1.8011217 -7.5634365 -9.0281353 69.989021
49300000000 -9.2417822 88.057884 -1.8036056 -7.6962452 -1.8074504 -7.7052321 -8.9742231 69.960167
49310000000 -9.181613 87.999832 -1.8100494 -7.7446165 -1.8068018 -7.74055 -8.9356804 70.086754
49320000000 -9.1416168 87.929123 -1.817382 -7.8388176 -1.8251348 -7.8660574 -8.9079123 70.314346
49330000000 -9.1228237 87.891434 -1.8134241 -7.9845452 -1.8232787 -7.9560351 -8.8903179 70.256393
49340000000 -9.0586987 87.88102 -1.8231128 -8.0380678 -1.8311087 -8.0137444 -8.8628721 70.240189
49350000000 -9.079154 87.699387 -1.8173524 -8.1394186 -1.820767 -8.1431751 -8.8555994 70.273354
49360000000 -9.0271893 87.705818 -1.8281698 -8.2139158 -1.8324718 -8.1839743 -8.8344803 70.209709
49370000000 -8.9881191 87.487625 -1.8306268 -8.3126535 -1.8390833 -8.2690792 -8.8230419 70.179634
49380000000 -8.9552031 87.578979 -1.8355638 -8.3730898 -1.8456078 -8.3543234 -8.8113575 69.960571
49390000000 -8.9345894 87.487587 -1.84068 -8.4357328 -1.843158 -8.472147 -8.7919464 69.910873
49400000000 -8.9053459 87.507179 -1.8397732 -8.5740767 -1.8455259 -8.5623446 -8.7769642 69.665833
49410000000 -8.8635769 87.462532 -1.8474706 -8.6613398 -1.85216 -8.6349401 -8.7334948 69.500351
49420000000 -8.8626566 87.29821 -1.8480819 -8.7346716 -1.8548315 -8.7134428 -8.6718645 69.682953
49430000000 -8.8285666 87.260345 -1.8511536 -8.8237686 -1.8619375 -8.8119326 -8.6414185 69.698799
49440000000 -8.7967615 87.315491 -1.8591596 -8.9235888 -1.860606 -8.8953114 -8.6214399 69.648346
49450000000 -8.7767572 87.076317 -1.8611213 -8.9693317 -1.8672727 -8.9953852 -8.5828819 69.609344
49460000000 -8.7501507 87.105782 -1.8668602 -9.1558771 -1.8730053 -9.1424389 -8.5657434 69.745232
49470000000 -8.7177773 86.839355 -1.872526 -9.1861773 -1.8714756 -9.1622972 -8.5369577 69.889061
49480000000 -8.6999674 86.728546 -1.8725487 -9.3035049 -1.8749915 -9.2868443 -8.525279 69.928589
49490000000 -8.6527767 86.646645 -1.8765246 -9.3618097 -1.8809515 -9.3771448 -8.5135126 69.820076
49500000000 -8.6174192 86.572685 -1.8829303 -9.4621878 -1.8843198 -9.4808731 -8.5126534 69.699036
49510000000 -8.5699463 86.584999 -1.8947597 -9.5455675 -1.8999096 -9.5498762 -8.4895144 69.59697
49520000000 -8.5231905 86.345413 -1.8867186 -9.609046 -1.8982601 -9.5719147 -8.4817629 69.401268
49530000000 -8.4654379 86.461746 -1.8979403 -9.7252407 -1.9009753 -9.7412376 -8.4691706 69.364235
49540000000 -8.4228964 86.513664 -1.8995744 -9.8025694 -1.9093603 -9.7663231 -8.4367638 69.082832
49550000000 -8.3962011 86.604416 -1.9045269 -9.9184189 -1.9106442 -9.8604937 -8.4052467 69.025108
49560000000 -8.3913727 86.760925 -1.9063869 -9.9664783 -1.9108126 -9.9395504 -8.3729134 68.845001
49570000000 -8.3785658 87.012604 -1.9103339 -10.093027 -1.9162588 -10.067471 -8.3393898 68.772881
49580000000 -8.3716869 86.917053 -1.9181938 -10.126556 -1.9223322 -10.131783 -8.3182306 68.805901
49590000000 -8.3803997 86.979897 -1.919111 -10.208688 -1.9249758 -10.20998 -8.2814569 68.799004
49600000000 -8.3809042 86.942886 -1.9227622 -10.317975 -1.9223092 -10.269717 -8.2640553 68.827393
49610000000 -8.3927612 86.885475 -1.9260252 -10.398422 -1.9283389 -10.466196 -8.2342262 68.885712
49620000000 -8.4013891 86.501427 -1.9303547 -10.45063 -1.9281917 -10.4715 -8.207036 68.960548
49630000000 -8.3877687 86.405952 -1.9359614 -10.521157 -1.938295 -10.525052 -8.1902866 68.963966
49640000000 -8.3816776 86.057045 -1.9268839 -10.612932 -1.9342121 -10.643877 -8.2000103 68.954933
49650000000 -8.361865 85.825668 -1.9326328 -10.687519 -1.9383565 -10.670405 -8.1686058 68.792747
49660000000 -8.3056946 85.628159 -1.9415802 -10.803708 -1.9398748 -10.801398 -8.1609268 68.78598
49670000000 -8.2644367 85.463097 -1.9475026 -10.873737 -1.9554219 -10.880122 -8.1344061 68.780106
49680000000 -8.2278233 85.218758 -1.9537411 -10.939205 -1.9564738 -10.944575 -8.1272898 68.734535
49690000000 -8.1843338 85.251144 -1.9534695 -11.03705 -1.9603915 -11.03152 -8.1127033 68.571899
49700000000 -8.1382275 85.118355 -1.9645374 -11.071085 -1.9703102 -11.070176 -8.0822802 68.549271
49710000000 -8.1099682 85.268433 -1.971393 -11.214542 -1.9718087 -11.178105 -8.0510979 68.456451
49720000000 -8.080061 85.1828 -1.9666705 -11.298311 -1.9719803 -11.265209 -8.0412827 68.430244
49730000000 -8.0625153 85.121719 -1.9626162 -11.367399 -1.9764302 -11.354651 -8.0155621 68.367714
49740000000 -8.0236006 85.208092 -1.9800915 -11.443075 -1.976034 -11.44679 -7.9899497 68.231705
49750000000 -8.0105495 85.075783 -1.9845321 -11.505364 -1.9880857 -11.584856 -7.9549179 68.275665
49760000000 -7.982007 84.965889 -1.9821532 -11.61863 -1.9966837 -11.614106 -7.9417839 68.169899
49770000000 -7.9412427 84.894638 -1.9859992 -11.714674 -1.9983952 -11.714415 -7.9156899 68.13031
49780000000 -7.9233937 84.827408 -1.985872 -11.794075 -1.9977698 -11.812483 -7.8821826 68.155899
49790000000 -7.8844953 84.635742 -1.9943243 -11.851905 -2.0009556 -11.864086 -7.8435125 68.042923
49800000000 -7.8305397 84.626633 -2.0109746 -11.928317 -2.0133526 -11.937134 -7.8212271 68.065834
49810000000 -7.7943921 84.547493 -2.0038865 -12.019032 -2.0086317 -12.031384 -7.7756395 68.074104
49820000000 -7.7819009 84.628113 -2.0070667 -12.165757 -2.0164752 -12.13585 -7.7389235 68.082298
49830000000 -7.7372055 84.670082 -2.0206478 -12.21725 -2.0196347 -12.176511 -7.7310767 68.123741
49840000000 -7.7011499 84.640312 -2.0250773 -12.254435 -2.0301521 -12.279724 -7.7009912 68.317375
49850000000 -7.6923194 84.793045 -2.0231805 -12.360675 -2.0248017 -12.38821 -7.6781797 68.408745
49860000000 -7.6669693 84.769478 -2.01758 -12.449858 -2.024708 -12.423781 -7.6739988 68.431763
49870000000 -7.6459618 84.614151 -2.020824 -12.543558 -2.033035 -12.545752 -7.6745415 68.601295
49880000000 -7.6318812 84.764336 -2.0365279 -12.587718 -2.041609 -12.611378 -7.6644249 68.602341
49890000000 -7.5936637 84.608551 -2.0337722 -12.62211 -2.0399654 -12.642506 -7.6692443 68.573486
49900000000 -7.5846658 84.595627 -2.0473435 -12.743948 -2.0468078 -12.762857 -7.6719341 68.617012
49910000000 -7.5551109 84.612755 -2.0490482 -12.774995 -2.04897 -12.830017 -7.6697307 68.523216
49920000000 -7.5360999 84.489037 -2.0373631 -12.912956 -2.0395405 -12.895497 -7.6957397 68.28318
49930000000 -7.4997706 84.442612 -2.0418613 -12.922485 -2.045912 -12.938293 -7.6882138 68.09996
49940000000 -7.4757991 84.585907 -2.0491385 -13.036752 -2.0564446 -13.018641 -7.6777077 68.045013
49950000000 -7.4658237 84.61554 -2.0541282 -13.129473 -2.0538888 -13.132508 -7.6634712 67.827248
49960000000 -7.4424639 84.800583 -2.061974 -13.229598 -2.064064 -13.189326 -7.6590204 67.693565
49970000000 -7.4303656 84.846733 -2.0577714 -13.274521 -2.0639837 -13.291184 -7.6539731 67.429482
49980000000 -7.4234166 85.010971 -2.0662012 -13.35619 -2.0602713 -13.373828 -7.6263981 67.316376
49990000000 -7.4140115 84.950356 -2.0622852 -13.455191 -2.070399 -13.421709 -7.6026015 67.298752
50000000000 -7.407876 85.020088 -2.0662167 -13.486184 -2.0693543 -13.515198 -7.594521 67.075768
