!Keysight Technologies,N5247B,US58420632,A.17.35.14
!Date: Wednesday, October 08, 2025 14:17:51
!Correction: S11(C  2-Port  ) 
!S21(C  2-Port  ) 
!S12(C  2-Port  ) 
!S22(C  2-Port  ) 
!S2P File: Measurements: S11, S21, S12, S22:
# Hz S  dB   R 50
10000000 -40.239483 -45.593182 -0.080700979 -0.17024939 -0.075184137 -0.18728875 -39.495453 -43.724747
20000000 -42.49118 -6.4789715 -0.084447078 -0.87974775 -0.084175229 -0.88286895 -41.097149 -13.09701
30000000 -41.544037 1.3618181 -0.088373937 -1.5617615 -0.088834696 -1.5763043 -40.389458 -7.8836112
40000000 -40.974335 3.6445467 -0.092460893 -2.2320719 -0.091713414 -2.2309198 -40.06316 -7.5829306
50000000 -40.882866 5.6841321 -0.097499356 -2.8144655 -0.096965939 -2.8118391 -39.985405 -8.2529335
60000000 -40.595039 6.6443467 -0.09981139 -3.3693078 -0.098566636 -3.3718312 -39.965645 -7.8058987
70000000 -40.053085 7.4671173 -0.101654 -3.9235706 -0.10008661 -3.9301784 -39.754059 -7.1273108
80000000 -39.795048 5.4644403 -0.10130476 -4.4848228 -0.099025302 -4.4871097 -39.528488 -8.2040682
90000000 -39.754395 4.0409861 -0.1022023 -5.0500579 -0.099184468 -5.045289 -39.156471 -8.9508219
100000000 -39.463028 0.98448855 -0.10434422 -5.6234393 -0.10130317 -5.6264324 -39.215405 -8.8771057
110000000 -39.135792 -0.34361643 -0.10740147 -6.1837611 -0.1032005 -6.1896429 -39.119938 -10.945965
120000000 -39.155682 -1.7703432 -0.10554739 -6.7168126 -0.10346479 -6.7284713 -39.359077 -14.217686
130000000 -40.45726 2.4278724 -0.093849905 -7.3269806 -0.092645735 -7.3268867 -40.100143 -8.7584209
140000000 -39.706501 11.422908 -0.10616542 -7.9361215 -0.1043832 -7.9355693 -38.627163 -10.133364
150000000 -39.400902 12.251298 -0.11259624 -8.4687424 -0.11017597 -8.4698362 -38.136971 -14.872363
160000000 -39.34584 12.071902 -0.11616258 -9.013319 -0.11358699 -9.0130367 -37.913479 -18.32703
170000000 -39.615868 12.150578 -0.11930851 -9.5608683 -0.11563564 -9.5554867 -37.746616 -21.161839
180000000 -39.778866 11.255518 -0.12116127 -10.108819 -0.11784378 -10.110031 -37.784054 -22.908888
190000000 -39.941402 9.5236092 -0.12246604 -10.663043 -0.11923241 -10.660444 -37.881927 -24.505905
200000000 -40.176014 7.0146403 -0.12516572 -11.214415 -0.12073407 -11.210797 -37.972759 -25.500805
210000000 -40.126385 4.53863 -0.12665585 -11.764484 -0.1225555 -11.756244 -38.051994 -26.891697
220000000 -39.763 2.3278623 -0.12809636 -12.305466 -0.12447146 -12.30647 -38.055542 -27.237005
230000000 -39.51791 0.82806772 -0.12856722 -12.849774 -0.12689252 -12.857723 -37.949841 -28.488384
240000000 -39.293625 -1.0204561 -0.13005318 -13.396806 -0.12857522 -13.399181 -37.883133 -30.217194
250000000 -39.008057 -3.3216915 -0.12832378 -13.927208 -0.12798119 -13.934508 -38.162594 -32.785927
260000000 -39.899387 -6.9449759 -0.11990108 -14.497088 -0.11843588 -14.506142 -38.473011 -29.62627
270000000 -40.377563 0.78344816 -0.12402529 -15.116788 -0.12312748 -15.120881 -37.633553 -30.18568
280000000 -40.070156 2.8282871 -0.13011399 -15.670647 -0.12896478 -15.673705 -37.389652 -34.074104
290000000 -40.388363 3.1063781 -0.13407837 -16.219872 -0.13039114 -16.213982 -37.327724 -36.44672
300000000 -40.582603 2.9814923 -0.13599034 -16.766136 -0.13212642 -16.764656 -37.338917 -39.18499
310000000 -40.771706 2.4498713 -0.13815968 -17.307705 -0.1340749 -17.309109 -37.499962 -40.618031
320000000 -41.128929 0.1669779 -0.13905926 -17.855188 -0.13622032 -17.856239 -37.527813 -41.769924
330000000 -41.12191 -2.7128763 -0.14001998 -18.399689 -0.13870245 -18.40522 -37.639896 -42.887245
340000000 -41.074314 -4.9746017 -0.14204369 -18.951851 -0.14021353 -18.953691 -37.701622 -44.349068
350000000 -40.981335 -7.9847822 -0.14387088 -19.500381 -0.14260033 -19.496895 -37.706322 -44.752026
360000000 -40.957451 -10.570728 -0.14632687 -20.041536 -0.14331032 -20.041719 -37.644131 -45.789799
370000000 -40.652325 -12.017506 -0.1486562 -20.584249 -0.14508665 -20.585524 -37.65332 -46.986778
380000000 -40.473206 -16.261553 -0.1464179 -21.106146 -0.1437296 -21.115927 -37.877724 -48.302822
390000000 -40.680332 -21.689795 -0.14002025 -21.663206 -0.13689482 -21.6637 -38.0238 -46.561676
400000000 -41.570435 -21.741573 -0.14022531 -22.269148 -0.13805279 -22.269796 -37.327927 -45.890469
410000000 -41.887867 -18.320967 -0.14684014 -22.823633 -0.14298902 -22.822765 -37.146702 -49.103882
420000000 -42.052925 -17.653591 -0.14921449 -23.369215 -0.14577591 -23.363972 -37.054813 -51.440174
430000000 -41.811523 -17.760588 -0.15120605 -23.915382 -0.14807363 -23.906939 -37.171223 -53.294254
440000000 -42.10125 -19.409185 -0.1527794 -24.457592 -0.15143494 -24.460468 -37.118988 -55.133347
450000000 -42.512592 -21.699118 -0.1537791 -25.007954 -0.15119827 -24.998268 -37.257965 -56.765732
460000000 -42.540001 -25.015987 -0.15492094 -25.552294 -0.15373512 -25.547745 -37.360081 -57.461262
470000000 -42.654518 -29.000383 -0.15673207 -26.099369 -0.1540717 -26.091583 -37.512413 -58.754852
480000000 -42.457016 -32.805984 -0.15863712 -26.643133 -0.1548772 -26.636545 -37.706738 -58.953114
490000000 -42.209839 -36.949066 -0.15925872 -27.187681 -0.15518545 -27.176342 -37.788197 -59.964745
500000000 -41.859058 -39.550346 -0.15870318 -27.718281 -0.15554173 -27.710173 -37.883568 -59.965591
510000000 -41.406151 -41.767178 -0.1586986 -28.251394 -0.15510523 -28.254354 -37.866314 -60.362324
520000000 -40.876358 -45.353104 -0.15510416 -28.802286 -0.1508083 -28.794834 -37.885635 -58.429256
530000000 -41.108231 -49.566204 -0.15481605 -29.386715 -0.15247321 -29.383789 -37.309361 -58.859676
540000000 -41.507076 -49.859711 -0.15910137 -29.941965 -0.15607703 -29.937347 -37.009487 -61.249714
550000000 -41.637379 -49.663815 -0.16147009 -30.493618 -0.15958151 -30.491533 -36.957462 -63.184074
560000000 -41.849636 -51.03986 -0.16326916 -31.040358 -0.16081432 -31.035553 -36.960907 -65.069084
570000000 -41.975174 -53.942127 -0.1648227 -31.579012 -0.16295417 -31.58116 -37.019394 -67.245163
580000000 -42.099934 -57.310234 -0.16661404 -32.126682 -0.16362907 -32.122108 -37.155128 -68.602226
590000000 -42.080372 -61.870163 -0.16898766 -32.662468 -0.16350812 -32.662891 -37.335258 -69.550201
600000000 -41.893341 -66.293335 -0.16919193 -33.210793 -0.16526556 -33.207382 -37.540821 -70.669228
610000000 -41.378452 -69.739128 -0.1694452 -33.753006 -0.16582006 -33.751583 -37.628429 -71.078705
620000000 -40.892406 -73.22406 -0.17151715 -34.300346 -0.16724189 -34.297466 -37.698097 -71.261452
630000000 -40.374134 -73.240425 -0.17182091 -34.838394 -0.16931978 -34.838478 -37.83939 -71.25248
640000000 -39.981606 -72.686249 -0.17220442 -35.380482 -0.16941425 -35.368347 -37.793831 -70.768799
650000000 -39.431538 -71.704636 -0.16974586 -35.917816 -0.16867171 -35.911797 -37.552135 -69.253036
660000000 -38.871853 -73.850655 -0.16967453 -36.485615 -0.16614281 -36.481186 -37.011559 -69.388206
670000000 -39.043808 -75.781548 -0.17284332 -37.056084 -0.16952379 -37.044834 -36.743736 -70.706696
680000000 -39.192924 -77.087654 -0.17510365 -37.596558 -0.17163563 -37.595795 -36.612244 -72.569328
690000000 -39.300228 -79.415894 -0.17691109 -38.141098 -0.17286325 -38.141476 -36.625481 -74.31179
700000000 -39.486347 -81.661842 -0.17680755 -38.686806 -0.17492981 -38.681091 -36.683365 -75.738365
710000000 -39.304184 -83.786362 -0.17880964 -39.2257 -0.17525539 -39.226505 -36.881763 -76.900345
720000000 -39.20985 -86.95195 -0.17980699 -39.770477 -0.17604676 -39.765526 -36.895256 -77.043762
730000000 -38.956856 -89.064095 -0.18134972 -40.30946 -0.17822704 -40.316765 -37.105988 -78.170837
740000000 -38.523884 -90.104393 -0.18183367 -40.853485 -0.17858711 -40.855362 -37.161125 -77.045647
750000000 -38.172211 -90.526482 -0.18274586 -41.406689 -0.18058759 -41.397327 -37.12582 -76.926048
760000000 -37.753628 -90.600739 -0.18307444 -41.949512 -0.18034528 -41.936821 -37.140968 -76.8078
770000000 -37.493843 -90.615417 -0.18499433 -42.486 -0.18146658 -42.477219 -37.036911 -75.72612
780000000 -37.108189 -89.538635 -0.18340008 -43.019524 -0.17958926 -43.017227 -36.854748 -75.295097
790000000 -36.777073 -89.547935 -0.18142907 -43.578606 -0.17872332 -43.579159 -36.398922 -75.270889
800000000 -36.584412 -90.790421 -0.18262976 -44.145275 -0.18002068 -44.14526 -36.196804 -77.442169
810000000 -36.60614 -91.053757 -0.18362501 -44.69231 -0.18158643 -44.688679 -36.128304 -78.528084
820000000 -36.703655 -91.714218 -0.18719721 -45.242695 -0.18316813 -45.236156 -36.082886 -79.699303
830000000 -36.764622 -92.618797 -0.18787481 -45.787777 -0.18459132 -45.781635 -36.085499 -80.548157
840000000 -36.788952 -93.691307 -0.18828732 -46.327888 -0.1855519 -46.325752 -36.025997 -80.709488
850000000 -36.69783 -95.211014 -0.19005725 -46.8741 -0.18680292 -46.869606 -36.045765 -80.960136
860000000 -36.56538 -96.661041 -0.19110857 -47.419235 -0.18723018 -47.413082 -36.060482 -81.965248
870000000 -36.413998 -98.204643 -0.19161905 -47.961273 -0.18910487 -47.963383 -36.052238 -82.678734
880000000 -36.150871 -98.66951 -0.19380933 -48.504635 -0.19004129 -48.49564 -36.082348 -81.927994
890000000 -35.84198 -99.705498 -0.19465174 -49.04491 -0.19035636 -49.042358 -36.018543 -81.681198
900000000 -35.602009 -99.676582 -0.19558828 -49.580349 -0.19114238 -49.581886 -35.867065 -82.025101
910000000 -35.354351 -99.524681 -0.19335569 -50.124527 -0.19024494 -50.126179 -35.648827 -81.94297
920000000 -35.177795 -98.470703 -0.19255467 -50.678509 -0.1896143 -50.677612 -35.439018 -82.671173
930000000 -34.910824 -98.274017 -0.19381744 -51.236912 -0.19064847 -51.237328 -35.279579 -83.495003
940000000 -34.900879 -98.464073 -0.1964221 -51.788704 -0.19307505 -51.783585 -35.063499 -84.541435
950000000 -34.899426 -98.683487 -0.19755813 -52.331947 -0.19471239 -52.330856 -34.982754 -85.203636
960000000 -34.985088 -98.856476 -0.19885381 -52.878437 -0.19603726 -52.874458 -34.865681 -85.764954
970000000 -35.075516 -99.89325 -0.1987064 -53.421886 -0.19739668 -53.418392 -34.792244 -86.520012
980000000 -35.050274 -100.83907 -0.20034531 -53.965694 -0.19867821 -53.958202 -34.715542 -87.435234
990000000 -35.030998 -102.91045 -0.20164019 -54.510864 -0.19823574 -54.502209 -34.67477 -88.204987
1000000000 -34.917698 -104.6898 -0.20154718 -55.05294 -0.19840427 -55.048321 -34.699253 -89.321815
1010000000 -34.775249 -106.10764 -0.20235936 -55.595783 -0.19838963 -55.596283 -34.720917 -89.409515
1020000000 -34.564766 -106.62365 -0.20314594 -56.141224 -0.20010704 -56.142712 -34.587311 -89.836342
1030000000 -34.352921 -107.36539 -0.20419963 -56.682587 -0.20114887 -56.681984 -34.478348 -89.708946
1040000000 -34.21669 -106.88271 -0.20557354 -57.227238 -0.20078476 -57.223515 -34.321785 -90.398476
1050000000 -34.03157 -106.33321 -0.20433339 -57.780716 -0.20120716 -57.782341 -34.071835 -91.395638
1060000000 -33.873356 -105.97488 -0.20568672 -58.336292 -0.20330463 -58.329796 -33.969147 -92.285027
1070000000 -33.821465 -106.27013 -0.20659198 -58.885063 -0.20315543 -58.879395 -33.872692 -93.069084
1080000000 -33.864819 -106.74477 -0.20804569 -59.429401 -0.20563054 -59.426819 -33.667583 -94.024048
1090000000 -33.943241 -107.12601 -0.21073118 -59.975292 -0.2062304 -59.973049 -33.557529 -95.103676
1100000000 -33.994751 -108.46969 -0.21090944 -60.513706 -0.20582353 -60.514454 -33.400921 -96.539406
1110000000 -34.066067 -109.90138 -0.21093552 -61.060486 -0.20774454 -61.061653 -33.435287 -97.540588
1120000000 -34.108482 -110.95027 -0.21197072 -61.606674 -0.20833409 -61.602863 -33.383938 -98.278038
1130000000 -34.074421 -111.90063 -0.21257988 -62.147331 -0.20914836 -62.151497 -33.354179 -99.048332
1140000000 -33.955002 -113.34832 -0.21418706 -62.694469 -0.20963326 -62.697796 -33.327038 -100.06529
1150000000 -33.829113 -114.34097 -0.21479762 -63.241295 -0.21106216 -63.237129 -33.270012 -100.24963
1160000000 -33.731407 -114.88642 -0.21586502 -63.780128 -0.21152252 -63.782425 -33.197578 -100.86559
1170000000 -33.639751 -115.16107 -0.21449845 -64.325569 -0.21273184 -64.324959 -33.094063 -101.2364
1180000000 -33.550251 -114.15718 -0.21520916 -64.872871 -0.21163288 -64.87233 -32.917904 -101.49015
1190000000 -33.474148 -114.28976 -0.21505056 -65.42849 -0.2118533 -65.426537 -32.779446 -102.56027
1200000000 -33.392979 -114.36619 -0.21683499 -65.975868 -0.21372722 -65.977364 -32.661011 -103.0619
1210000000 -33.462608 -114.4203 -0.21757574 -66.521652 -0.21413566 -66.519531 -32.592182 -103.99123
1220000000 -33.496967 -115.00053 -0.2184255 -67.063103 -0.21559297 -67.063881 -32.51408 -104.83515
1230000000 -33.572689 -115.86663 -0.21944287 -67.613037 -0.21519963 -67.60495 -32.38422 -106.0216
1240000000 -33.63456 -116.7663 -0.22114439 -68.156876 -0.2162274 -68.148529 -32.304142 -107.16794
1250000000 -33.744358 -117.91266 -0.22166194 -68.700745 -0.21699636 -68.697731 -32.241283 -108.16164
1260000000 -33.737957 -119.1981 -0.22276945 -69.242287 -0.21815221 -69.240753 -32.21236 -108.75857
1270000000 -33.714584 -120.30006 -0.22374833 -69.786285 -0.21921961 -69.78273 -32.125141 -109.36245
1280000000 -33.608238 -121.92505 -0.22451152 -70.33268 -0.22087146 -70.32856 -32.07103 -110.21241
1290000000 -33.497734 -122.88573 -0.22436133 -70.873779 -0.22223188 -70.868095 -32.039867 -110.66365
1300000000 -33.4133 -123.55162 -0.22491552 -71.415321 -0.22155081 -71.413376 -31.940269 -111.44857
1310000000 -33.330593 -123.7803 -0.22554559 -71.960762 -0.22101283 -71.956337 -31.82188 -112.28133
1320000000 -33.190414 -123.70084 -0.22489998 -72.511185 -0.22156551 -72.511353 -31.754747 -113.03322
1330000000 -33.128464 -123.72673 -0.22536863 -73.059631 -0.22234875 -73.062637 -31.715763 -114.03984
1340000000 -33.160549 -124.24635 -0.22729123 -73.609657 -0.22364503 -73.598755 -31.601877 -114.64017
1350000000 -33.213604 -124.5869 -0.22881845 -74.157272 -0.225394 -74.146599 -31.558075 -115.66136
1360000000 -33.268742 -125.07127 -0.22998592 -74.691856 -0.22596905 -74.694588 -31.453472 -116.56501
1370000000 -33.369663 -125.92287 -0.23079389 -75.236359 -0.2264801 -75.23587 -31.330095 -117.30115
1380000000 -33.393547 -127.29748 -0.23155668 -75.785797 -0.22776532 -75.784218 -31.231047 -118.5492
1390000000 -33.429298 -129.13667 -0.23240045 -76.327812 -0.22814317 -76.327515 -31.195261 -119.7576
1400000000 -33.434479 -130.76009 -0.23301768 -76.870316 -0.22907194 -76.872147 -31.168261 -120.57966
1410000000 -33.364677 -131.81538 -0.23380299 -77.413017 -0.22862363 -77.415085 -31.142021 -121.04414
1420000000 -33.227676 -133.537 -0.23422834 -77.95195 -0.23018572 -77.958771 -31.061222 -122.16119
1430000000 -33.109966 -134.5621 -0.23375273 -78.497543 -0.23012485 -78.500565 -31.015903 -122.77746
1440000000 -33.069901 -135.36209 -0.23358691 -79.048531 -0.2308919 -79.041748 -30.941751 -123.76578
1450000000 -32.987064 -135.18408 -0.2338814 -79.598747 -0.23021847 -79.593468 -30.931286 -124.32345
1460000000 -32.871098 -135.03381 -0.23554976 -80.146423 -0.23071937 -80.145126 -30.864134 -124.96141
1470000000 -32.87014 -135.48669 -0.23665208 -80.691711 -0.23277378 -80.694885 -30.797958 -125.72485
1480000000 -32.889702 -136.28041 -0.23679094 -81.239403 -0.23367105 -81.236176 -30.694328 -126.55296
1490000000 -32.974926 -136.7265 -0.23807758 -81.776215 -0.23489556 -81.785797 -30.615425 -127.22025
1500000000 -33.040981 -137.90154 -0.23906238 -82.32093 -0.23496087 -82.327881 -30.539524 -128.43561
1510000000 -33.028564 -139.45393 -0.2405103 -82.874352 -0.23556179 -82.871101 -30.429451 -129.60321
1520000000 -33.088242 -141.17384 -0.24048786 -83.414436 -0.23677126 -83.416283 -30.388109 -130.6039
1530000000 -33.094582 -142.70984 -0.24127288 -83.959274 -0.23741645 -83.961586 -30.335596 -131.69728
1540000000 -33.032085 -144.25679 -0.24197595 -84.505714 -0.23805407 -84.502258 -30.314939 -132.34839
1550000000 -32.967613 -145.5827 -0.24275248 -85.051178 -0.23907086 -85.048782 -30.285763 -133.39247
1560000000 -32.850491 -146.72005 -0.24313025 -85.594757 -0.23948306 -85.592056 -30.259964 -134.09496
1570000000 -32.766441 -147.4348 -0.2433449 -86.141846 -0.23924646 -86.13987 -30.223974 -134.56418
1580000000 -32.711277 -147.73935 -0.24402337 -86.697166 -0.23932768 -86.692078 -30.179701 -135.27394
1590000000 -32.669582 -147.97865 -0.24523355 -87.244492 -0.24115768 -87.245804 -30.173363 -135.86562
1600000000 -32.592827 -148.36661 -0.24541982 -87.793365 -0.24178436 -87.788681 -30.113956 -136.20015
1610000000 -32.571316 -148.82603 -0.24619532 -88.334229 -0.24285705 -88.337517 -30.029381 -137.0314
1620000000 -32.591763 -149.72717 -0.24717729 -88.882698 -0.24296518 -88.879425 -29.947748 -138.011
1630000000 -32.572479 -150.92285 -0.24789774 -89.429695 -0.24423696 -89.426773 -29.861839 -139.01968
1640000000 -32.631451 -151.78998 -0.24935 -89.972794 -0.24525656 -89.96804 -29.82859 -139.99243
1650000000 -32.6329 -153.40271 -0.25000802 -90.518234 -0.24543378 -90.512505 -29.777184 -141.02452
1660000000 -32.631443 -154.73964 -0.25103748 -91.063446 -0.24694027 -91.059784 -29.711226 -141.85352
1670000000 -32.60754 -156.29915 -0.2522189 -91.609589 -0.24696246 -91.606033 -29.672905 -142.48474
1680000000 -32.506077 -157.63475 -0.2525396 -92.146675 -0.24870631 -92.150444 -29.62417 -143.19308
1690000000 -32.420677 -158.66612 -0.25230697 -92.690216 -0.24825405 -92.692833 -29.575724 -143.70776
1700000000 -32.392895 -159.87396 -0.2525374 -93.240097 -0.24753408 -93.2323 -29.5646 -144.433
1710000000 -32.272564 -160.2565 -0.25311553 -93.787041 -0.24779607 -93.791092 -29.569225 -144.84599
1720000000 -32.220612 -160.46872 -0.25416055 -94.335762 -0.24954218 -94.336456 -29.516949 -145.33609
1730000000 -32.157066 -160.90465 -0.25430191 -94.883827 -0.24999705 -94.884392 -29.504578 -145.72977
1740000000 -32.184826 -161.05954 -0.25508174 -95.431206 -0.25075334 -95.427399 -29.448965 -146.61623
1750000000 -32.137226 -161.62335 -0.25565907 -95.973259 -0.25184855 -95.971428 -29.395792 -147.33481
1760000000 -32.155487 -161.99403 -0.2573894 -96.519165 -0.25234729 -96.515732 -29.34482 -147.84322
1770000000 -32.212017 -163.36815 -0.25824645 -97.062927 -0.25408891 -97.062073 -29.287104 -148.83826
1780000000 -32.218803 -164.46257 -0.25965378 -97.602943 -0.25495353 -97.604263 -29.238916 -149.85994
1790000000 -32.20541 -165.70122 -0.26058686 -98.14769 -0.25476658 -98.14608 -29.188591 -150.43968
1800000000 -32.172989 -167.20882 -0.26108411 -98.688034 -0.25661108 -98.685654 -29.128828 -151.29109
1810000000 -32.097206 -168.60141 -0.2609978 -99.23024 -0.25730976 -99.229668 -29.120066 -152.01385
1820000000 -32.042263 -169.83232 -0.26228806 -99.769508 -0.25723037 -99.773407 -29.072063 -152.71446
1830000000 -31.896065 -170.80138 -0.26179314 -100.31525 -0.25744984 -100.31269 -29.063269 -153.44852
1840000000 -31.866074 -171.69397 -0.26100716 -100.86229 -0.2568588 -100.86162 -29.041813 -154.15741
1850000000 -31.834112 -172.05615 -0.26129884 -101.41536 -0.25738254 -101.41119 -29.0124 -154.68488
1860000000 -31.786682 -172.33598 -0.26344284 -101.95743 -0.25836539 -101.96117 -29.000713 -154.95874
1870000000 -31.702856 -172.53406 -0.26301819 -102.50301 -0.2596744 -102.50554 -28.963482 -155.42323
1880000000 -31.711437 -172.98114 -0.2641927 -103.04891 -0.26054177 -103.05389 -28.924242 -155.95311
1890000000 -31.765759 -173.49324 -0.26574367 -103.59489 -0.26117265 -103.59402 -28.856762 -156.84932
1900000000 -31.739914 -174.31192 -0.26689497 -104.13801 -0.26202521 -104.14 -28.820812 -157.54057
1910000000 -31.742994 -175.35538 -0.26734754 -104.68255 -0.2623865 -104.67758 -28.776083 -158.32164
1920000000 -31.715538 -176.74519 -0.2677536 -105.22602 -0.26441553 -105.22968 -28.734608 -159.41074
1930000000 -31.735231 -178.1738 -0.2689068 -105.7654 -0.26357239 -105.7646 -28.706846 -160.28772
1940000000 -31.600046 -179.70616 -0.27025342 -106.30779 -0.26448512 -106.30749 -28.660006 -161.11159
1950000000 -31.545055 179.25801 -0.27107802 -106.84933 -0.26526019 -106.84969 -28.657919 -162.05629
1960000000 -31.424219 177.77541 -0.27001625 -107.39871 -0.26586092 -107.39479 -28.639099 -162.85849
1970000000 -31.386425 176.71248 -0.27090251 -107.94622 -0.26635492 -107.94505 -28.635628 -163.37222
1980000000 -31.399244 176.46794 -0.27158999 -108.49284 -0.26755592 -108.49277 -28.641571 -163.74162
1990000000 -31.334433 175.84973 -0.27280787 -109.04472 -0.2688421 -109.04002 -28.577822 -164.18474
2000000000 -31.303272 175.52643 -0.27458116 -109.5859 -0.26953337 -109.59123 -28.52771 -164.80524
2010000000 -31.322992 174.88371 -0.27485058 -110.1291 -0.27009144 -110.12998 -28.483236 -165.22537
2020000000 -31.302454 174.2681 -0.27513933 -110.68033 -0.2717512 -110.67837 -28.41959 -165.95419
2030000000 -31.309389 173.48317 -0.27603215 -111.21832 -0.27222189 -111.22375 -28.382711 -166.75452
2040000000 -31.277287 172.48494 -0.2773324 -111.76526 -0.27266675 -111.76823 -28.324602 -167.58661
2050000000 -31.279898 171.10097 -0.27798861 -112.30808 -0.2736688 -112.31198 -28.293066 -168.44026
2060000000 -31.261244 169.89644 -0.27852431 -112.85065 -0.27397621 -112.85435 -28.295927 -169.37057
2070000000 -31.211193 168.78394 -0.27939132 -113.39574 -0.27495897 -113.40132 -28.254154 -170.13751
2080000000 -31.133715 167.60004 -0.27989075 -113.94408 -0.27574307 -113.93967 -28.210337 -171.0161
2090000000 -31.010965 166.51891 -0.28017846 -114.48894 -0.27585891 -114.48926 -28.241713 -171.9155
2100000000 -30.911249 165.52261 -0.28115931 -115.03819 -0.27624455 -115.03735 -28.238859 -172.44066
2110000000 -30.883284 165.0155 -0.28097704 -115.58481 -0.27661228 -115.58318 -28.221573 -172.87289
2120000000 -30.785099 164.06073 -0.28285035 -116.13496 -0.27868551 -116.13379 -28.180676 -173.39647
2130000000 -30.738815 163.41212 -0.28383625 -116.68128 -0.27839625 -116.67753 -28.146791 -174.30415
2140000000 -30.675154 162.75311 -0.28423584 -117.22265 -0.28040045 -117.21944 -28.100496 -174.98921
2150000000 -30.657238 161.97429 -0.28606412 -117.76363 -0.28094941 -117.7674 -28.051908 -175.62062
2160000000 -30.69416 161.5786 -0.28598228 -118.30677 -0.28118664 -118.30983 -28.010777 -176.40218
2170000000 -30.653841 160.4368 -0.28723463 -118.85013 -0.28310454 -118.85054 -27.961906 -177.09462
2180000000 -30.663458 159.65916 -0.28834379 -119.39126 -0.28341207 -119.3981 -27.928375 -177.97284
2190000000 -30.649757 158.4615 -0.28895545 -119.93941 -0.28420076 -119.93742 -27.878042 -178.651
2200000000 -30.567181 157.28851 -0.28914222 -120.48571 -0.28551838 -120.48232 -27.880606 -179.29555
2210000000 -30.504532 156.22409 -0.28996763 -121.02734 -0.28587225 -121.02026 -27.896935 -179.97523
2220000000 -30.401489 155.13382 -0.29025212 -121.56607 -0.28619739 -121.57191 -27.923914 179.2971
2230000000 -30.309969 154.20706 -0.28955033 -122.11254 -0.28626817 -122.11316 -27.910959 178.62912
2240000000 -30.215857 153.45076 -0.29172385 -122.66055 -0.28704798 -122.65744 -27.913311 178.13184
2250000000 -30.161127 152.59991 -0.29205415 -123.20464 -0.28761438 -123.20772 -27.892473 177.46049
2260000000 -30.104944 151.98988 -0.29307202 -123.74739 -0.28837726 -123.75005 -27.873631 176.87746
2270000000 -30.065145 151.60678 -0.29329109 -124.29034 -0.28940341 -124.29865 -27.820063 176.30249
2280000000 -30.025543 150.93481 -0.29402393 -124.83484 -0.29060915 -124.83956 -27.825829 175.73277
2290000000 -30.004255 150.35138 -0.29389405 -125.3784 -0.29194838 -125.38124 -27.796341 175.05832
2300000000 -29.968676 149.67316 -0.29527196 -125.9221 -0.29192764 -125.91895 -27.806137 174.3721
2310000000 -29.992884 148.69135 -0.29672047 -126.46262 -0.29245785 -126.46285 -27.80184 173.855
2320000000 -29.965981 147.99828 -0.29676896 -127.00565 -0.2925204 -127.00375 -27.784657 173.16187
2330000000 -29.901915 147.05765 -0.29674512 -127.54713 -0.29321465 -127.54987 -27.77795 172.46307
2340000000 -29.845747 146.04214 -0.29723963 -128.0876 -0.29278597 -128.09053 -27.776688 171.87727
2350000000 -29.75934 145.09642 -0.29830807 -128.63124 -0.29355723 -128.63226 -27.855764 171.1824
2360000000 -29.693407 144.57054 -0.29744366 -129.17793 -0.29396328 -129.17628 -27.817066 170.72977
2370000000 -29.603153 143.63441 -0.29842231 -129.72699 -0.29416549 -129.72357 -27.814394 170.17322
2380000000 -29.556326 143.02678 -0.29944834 -130.26868 -0.29498661 -130.2693 -27.817757 169.69696
2390000000 -29.517649 142.25964 -0.29990542 -130.81413 -0.29651704 -130.80867 -27.804295 169.02211
2400000000 -29.439177 141.64738 -0.30123809 -131.35706 -0.29775745 -131.35234 -27.808353 168.7854
2410000000 -29.425261 141.12636 -0.301828 -131.89787 -0.29779351 -131.90002 -27.780249 168.43477
2420000000 -29.386621 140.38251 -0.30272633 -132.43851 -0.29894471 -132.43837 -27.745083 167.85382
2430000000 -29.3934 139.9073 -0.30333892 -132.98885 -0.29911417 -132.98189 -27.707611 167.03082
2440000000 -29.326536 139.33299 -0.30420339 -133.53441 -0.30024049 -133.52975 -27.753683 166.43005
2450000000 -29.270292 138.20451 -0.30529717 -134.07158 -0.30088297 -134.06708 -27.753836 165.98134
2460000000 -29.24892 137.55708 -0.30502585 -134.61317 -0.30075091 -134.61076 -27.742733 165.40295
2470000000 -29.187687 136.79288 -0.30549324 -135.1534 -0.30105332 -135.15746 -27.743366 164.78641
2480000000 -29.109503 136.12349 -0.3062312 -135.69731 -0.3013413 -135.70166 -27.740185 164.12349
2490000000 -29.056938 135.4375 -0.30571958 -136.24062 -0.30135295 -136.24727 -27.767498 163.53796
2500000000 -28.940125 134.76816 -0.30578181 -136.79097 -0.30222648 -136.78937 -27.798613 163.05284
2510000000 -28.886063 134.09123 -0.30661345 -137.33459 -0.30284762 -137.33641 -27.761587 162.75745
2520000000 -28.847422 133.44283 -0.30775368 -137.87819 -0.30342358 -137.8792 -27.727434 162.15184
2530000000 -28.772184 133.08925 -0.30893865 -138.42389 -0.30483425 -138.4257 -27.705547 161.54469
2540000000 -28.699036 132.48741 -0.31079045 -138.96799 -0.30598956 -138.97003 -27.714727 161.10141
2550000000 -28.690065 132.02278 -0.31026521 -139.51212 -0.30664456 -139.50545 -27.676783 160.63773
2560000000 -28.62043 131.4884 -0.31132659 -140.05501 -0.30738577 -140.06053 -27.675968 160.35431
2570000000 -28.625034 131.09187 -0.31168562 -140.59717 -0.30711627 -140.60262 -27.652653 159.75214
2580000000 -28.571142 130.49829 -0.31239295 -141.145 -0.30869186 -141.14182 -27.669508 159.34238
2590000000 -28.543299 129.76776 -0.31315631 -141.68703 -0.30791539 -141.68626 -27.66571 158.83183
2600000000 -28.473734 129.13083 -0.31359839 -142.23416 -0.30813771 -142.22751 -27.66304 158.35281
2610000000 -28.443977 128.77379 -0.31328511 -142.7733 -0.30877885 -142.7729 -27.669189 157.81058
2620000000 -28.390041 128.12497 -0.31396571 -143.32027 -0.30965194 -143.31918 -27.6695 157.25452
2630000000 -28.289669 127.61044 -0.3145206 -143.86729 -0.30955797 -143.86131 -27.675764 156.96953
2640000000 -28.249121 127.04264 -0.31524453 -144.40842 -0.31219155 -144.40491 -27.648153 156.39388
2650000000 -28.185961 126.43481 -0.31620464 -144.95732 -0.31185028 -144.95554 -27.648825 156.00624
2660000000 -28.124168 125.77917 -0.31688347 -145.4985 -0.31246498 -145.49382 -27.60594 155.63786
2670000000 -28.102491 125.23695 -0.3180328 -146.03769 -0.31248 -146.04182 -27.573513 155.15207
2680000000 -28.058874 124.59489 -0.31851357 -146.58603 -0.31464112 -146.57954 -27.553949 154.95776
2690000000 -28.033997 124.14565 -0.31954184 -147.13019 -0.31485569 -147.12524 -27.536776 154.40092
2700000000 -28.028671 123.65394 -0.31795064 -147.67409 -0.31560165 -147.67348 -27.516951 154.09547
2710000000 -28.02503 123.01505 -0.32026687 -148.21504 -0.3159062 -148.21941 -27.500343 153.6248
2720000000 -28.003605 122.54228 -0.32102299 -148.7616 -0.31597748 -148.76411 -27.478004 153.15244
2730000000 -27.97728 121.97643 -0.32097533 -149.30249 -0.31720901 -149.30157 -27.491795 152.82318
2740000000 -27.953634 121.37462 -0.3209416 -149.84709 -0.31799799 -149.84579 -27.480286 152.42558
2750000000 -27.895113 120.75982 -0.32200363 -150.39124 -0.31762812 -150.39136 -27.501453 152.00107
2760000000 -27.881172 120.50936 -0.32159635 -150.93063 -0.31908298 -150.93167 -27.437243 151.85492
2770000000 -27.848057 120.13957 -0.32250074 -151.47678 -0.31843445 -151.47885 -27.454939 151.28375
2780000000 -27.819468 119.82243 -0.32335621 -152.01759 -0.32003114 -152.02029 -27.468481 150.77179
2790000000 -27.817961 119.56768 -0.32388887 -152.56122 -0.32060939 -152.56747 -27.460804 150.41853
2800000000 -27.806017 118.97565 -0.32488355 -153.10583 -0.32140958 -153.10657 -27.429472 150.15256
2810000000 -27.812147 118.57236 -0.32433766 -153.65063 -0.32118323 -153.65016 -27.416534 149.5927
2820000000 -27.788717 118.14497 -0.32623202 -154.1904 -0.32185587 -154.19151 -27.369019 149.46956
2830000000 -27.822439 117.59853 -0.32525125 -154.73291 -0.32140401 -154.73499 -27.367441 148.93196
2840000000 -27.786362 116.98909 -0.32655546 -155.27419 -0.32297111 -155.2785 -27.381052 148.4435
2850000000 -27.785011 116.47059 -0.32694227 -155.82159 -0.32325777 -155.82072 -27.361917 148.14778
2860000000 -27.791754 115.9706 -0.32760993 -156.36317 -0.32382026 -156.36739 -27.331467 147.77368
2870000000 -27.765823 115.4241 -0.32771766 -156.90787 -0.32457224 -156.90944 -27.305504 147.24106
2880000000 -27.766415 114.83895 -0.3281928 -157.44841 -0.32421046 -157.45091 -27.316584 146.93463
2890000000 -27.783791 114.41241 -0.32932699 -157.98894 -0.32442328 -157.98958 -27.273584 146.46384
2900000000 -27.772346 113.86945 -0.3301788 -158.53804 -0.32542452 -158.5392 -27.2087 146.15884
2910000000 -27.766672 113.44769 -0.33030784 -159.08154 -0.32669052 -159.08148 -27.182064 145.7059
2920000000 -27.762926 113.1199 -0.33089808 -159.62555 -0.32653704 -159.63496 -27.162083 145.36819
2930000000 -27.796577 112.49052 -0.33190191 -160.17148 -0.32756665 -160.17157 -27.158634 144.99686
2940000000 -27.799974 112.07182 -0.33162919 -160.71506 -0.32818276 -160.7106 -27.126696 144.66623
2950000000 -27.806952 111.71968 -0.3320592 -161.25813 -0.32785362 -161.25824 -27.073259 144.14998
2960000000 -27.793337 111.16758 -0.33312175 -161.80418 -0.32886067 -161.79895 -27.064087 143.53957
2970000000 -27.810059 110.6368 -0.33379874 -162.34244 -0.32948309 -162.33957 -27.03294 142.99965
2980000000 -27.815157 110.06268 -0.33283806 -162.88852 -0.33023661 -162.8848 -27.012732 142.48227
2990000000 -27.812841 109.60815 -0.3346844 -163.43179 -0.32970035 -163.42719 -26.972235 141.91612
3000000000 -27.76671 109.01982 -0.33428627 -163.97075 -0.33137217 -163.976 -26.944307 141.41566
3010000000 -27.771229 108.56589 -0.33577329 -164.51563 -0.33197957 -164.51605 -26.931585 140.80553
3020000000 -27.792429 108.08921 -0.33568743 -165.06097 -0.33244428 -165.06819 -26.902349 140.33502
3030000000 -27.789337 107.54613 -0.33649963 -165.60863 -0.33196422 -165.60806 -26.886568 139.75465
3040000000 -27.806673 107.0071 -0.33650273 -166.158 -0.33395612 -166.15622 -26.855288 139.27927
3050000000 -27.825405 106.59026 -0.33705407 -166.6967 -0.33390495 -166.70474 -26.798784 138.85811
3060000000 -27.848501 106.0024 -0.33787522 -167.24321 -0.33418423 -167.24602 -26.752642 138.62497
3070000000 -27.876492 105.42467 -0.33807445 -167.78986 -0.33548021 -167.78563 -26.700861 137.90266
3080000000 -27.924658 104.81667 -0.33847767 -168.33002 -0.33512589 -168.33252 -26.660814 137.30496
3090000000 -27.962852 104.14165 -0.33935255 -168.87413 -0.33573666 -168.87895 -26.636574 136.77533
3100000000 -27.987696 103.41559 -0.33955631 -169.42061 -0.3362096 -169.42459 -26.614113 136.0728
3110000000 -28.003479 102.54655 -0.34051317 -169.95923 -0.33721074 -169.96794 -26.58984 135.46652
3120000000 -27.994932 101.99286 -0.34162536 -170.51016 -0.33759403 -170.51277 -26.578369 134.80757
3130000000 -27.979382 101.16219 -0.34247285 -171.05461 -0.3383761 -171.05821 -26.555128 134.32845
3140000000 -27.993025 100.44923 -0.34218687 -171.59825 -0.33863747 -171.60051 -26.547159 133.87209
3150000000 -27.97105 99.921974 -0.34279275 -172.14258 -0.33946702 -172.14703 -26.528166 133.25089
3160000000 -27.991713 99.379448 -0.34361497 -172.68675 -0.33941609 -172.68639 -26.488708 132.78625
3170000000 -28.005449 98.928078 -0.34418795 -173.23055 -0.33952329 -173.23569 -26.458681 132.1729
3180000000 -28.055759 98.46537 -0.3444522 -173.77162 -0.34002295 -173.77411 -26.411472 131.68327
3190000000 -28.097462 97.666321 -0.3447302 -174.31477 -0.3416273 -174.31847 -26.382763 131.00792
3200000000 -28.11791 97.132263 -0.34549168 -174.86098 -0.34207568 -174.86444 -26.335106 130.61583
3210000000 -28.164091 96.302002 -0.34520245 -175.40067 -0.34286389 -175.40546 -26.313133 129.86325
3220000000 -28.198763 95.551003 -0.34586224 -175.94952 -0.34258628 -175.94537 -26.269547 129.20924
3230000000 -28.231134 94.614388 -0.34646106 -176.49242 -0.34260142 -176.49744 -26.26149 128.65053
3240000000 -28.270149 93.771835 -0.34672853 -177.03311 -0.34320256 -177.03937 -26.239824 128.07414
3250000000 -28.268126 92.711136 -0.34687039 -177.57526 -0.3444564 -177.58282 -26.208685 127.35299
3260000000 -28.267706 92.144226 -0.34802094 -178.12224 -0.3438293 -178.11974 -26.208265 126.6999
3270000000 -28.260853 91.52301 -0.34798309 -178.66675 -0.34542245 -178.66409 -26.204041 126.077
3280000000 -28.258234 90.781502 -0.34872916 -179.20404 -0.34596905 -179.20511 -26.198915 125.61972
3290000000 -28.256897 90.136131 -0.3502551 -179.74858 -0.34693825 -179.75294 -26.16696 124.94991
3300000000 -28.25086 89.534622 -0.35025734 179.70743 -0.34747747 179.70886 -26.174282 124.20596
3310000000 -28.317225 88.723633 -0.35029688 179.1656 -0.34809947 179.16541 -26.153734 123.74139
3320000000 -28.365044 88.056511 -0.35043439 178.62251 -0.34796908 178.62076 -26.144279 123.13467
3330000000 -28.383583 87.357513 -0.35201791 178.07765 -0.34872946 178.07555 -26.123209 122.61288
3340000000 -28.422226 86.495277 -0.35240278 177.53596 -0.34874627 177.53546 -26.066238 122.04608
3350000000 -28.450836 85.672104 -0.35199404 176.99298 -0.34943497 176.99677 -26.062271 121.39124
3360000000 -28.449627 84.652199 -0.35387045 176.45042 -0.35014284 176.44969 -26.051291 120.57648
3370000000 -28.474474 83.792099 -0.35356662 175.90843 -0.35023713 175.90259 -26.042843 119.96229
3380000000 -28.504827 82.85051 -0.35431924 175.36507 -0.35098022 175.36595 -26.05695 119.43272
3390000000 -28.514145 82.050873 -0.35539258 174.82675 -0.35079303 174.82237 -26.02887 118.68831
3400000000 -28.479044 81.11174 -0.35607332 174.28444 -0.35122299 174.28172 -26.049484 117.94561
3410000000 -28.478369 80.677361 -0.35548276 173.74356 -0.35137457 173.7368 -26.074631 117.45307
3420000000 -28.471619 79.853477 -0.35603932 173.19955 -0.35200837 173.19005 -26.072596 116.95914
3430000000 -28.47909 78.947243 -0.35665554 172.65176 -0.35240981 172.65027 -26.066658 116.24532
3440000000 -28.46916 78.439049 -0.35746101 172.11198 -0.35303673 172.10663 -26.041355 115.6688
3450000000 -28.49132 77.483124 -0.3580693 171.56841 -0.35338464 171.56323 -26.052917 115.14201
3460000000 -28.525675 76.646698 -0.35792565 171.02275 -0.35496923 171.01942 -26.038897 114.6266
3470000000 -28.572119 75.687698 -0.35970592 170.48192 -0.35465968 170.47247 -26.032497 114.11625
3480000000 -28.593779 74.958687 -0.36013171 169.93565 -0.35449648 169.93626 -26.013159 113.30653
3490000000 -28.61421 73.708038 -0.36065876 169.39627 -0.35644394 169.3904 -26.019205 112.57253
3500000000 -28.597441 72.883118 -0.36095214 168.85156 -0.35592833 168.84892 -26.026028 111.94155
3510000000 -28.607819 71.757912 -0.3607952 168.30994 -0.35641924 168.30835 -26.02763 111.32507
3520000000 -28.583065 70.717392 -0.36108661 167.763 -0.35710266 167.76118 -26.033775 110.73228
3530000000 -28.550766 69.728722 -0.36192524 167.22304 -0.35758355 167.21709 -26.020655 110.1056
3540000000 -28.512693 69.107536 -0.36291152 166.67853 -0.35827366 166.67067 -26.025394 109.37566
3550000000 -28.496338 68.219353 -0.36328807 166.12675 -0.35827056 166.12914 -26.048939 108.99635
3560000000 -28.496304 67.698448 -0.36261716 165.58292 -0.3588843 165.58064 -26.058144 108.54706
3570000000 -28.492737 66.809189 -0.36385185 165.04042 -0.35951358 165.03641 -26.069191 107.98051
3580000000 -28.517302 66.102364 -0.36393967 164.49663 -0.36012185 164.4938 -26.077335 107.45822
3590000000 -28.530005 65.539772 -0.36542168 163.95045 -0.36000291 163.95078 -26.074087 106.95105
3600000000 -28.568655 64.711815 -0.36547264 163.4091 -0.36052009 163.40753 -26.070696 106.51085
3610000000 -28.564461 63.766838 -0.36580604 162.8662 -0.36074737 162.86581 -26.075665 105.95884
3620000000 -28.57021 62.81353 -0.3664569 162.32057 -0.36135584 162.32002 -26.067764 105.26691
3630000000 -28.581129 61.856415 -0.36643746 161.77824 -0.36188501 161.77251 -26.088678 104.74617
3640000000 -28.557364 61.028656 -0.36674616 161.2308 -0.362367 161.22733 -26.104551 104.10731
3650000000 -28.521835 60.114559 -0.36669263 160.68962 -0.36313778 160.68993 -26.110912 103.2532
3660000000 -28.506878 59.331272 -0.36781156 160.1465 -0.36253726 160.14552 -26.164139 102.79064
3670000000 -28.44784 58.605968 -0.36870673 159.60066 -0.36377838 159.60101 -26.170383 102.14377
3680000000 -28.421381 58.037579 -0.36820912 159.05499 -0.36467779 159.05319 -26.188475 101.58613
3690000000 -28.399504 57.501476 -0.36856866 158.51108 -0.36469778 158.50923 -26.202003 100.87607
3700000000 -28.364796 56.884319 -0.36947638 157.96931 -0.36611697 157.96402 -26.21666 100.42425
3710000000 -28.373411 56.255882 -0.36959872 157.42271 -0.36559203 157.42036 -26.261139 100.14583
3720000000 -28.390507 55.646835 -0.37095803 156.87886 -0.36545631 156.87996 -26.267212 99.731522
3730000000 -28.42927 55.001896 -0.3713116 156.33463 -0.36612457 156.33189 -26.288252 99.207413
3740000000 -28.440817 54.286732 -0.37121686 155.78912 -0.3671501 155.7886 -26.289627 98.753609
3750000000 -28.441753 53.39257 -0.37229747 155.25175 -0.36681771 155.24742 -26.314974 98.306961
3760000000 -28.467489 52.569084 -0.37243623 154.7045 -0.36732137 154.70453 -26.308706 97.880096
3770000000 -28.454594 51.562061 -0.37252647 154.16171 -0.36767155 154.16435 -26.317291 97.129181
3780000000 -28.431337 50.802628 -0.37360176 153.62154 -0.36815277 153.61937 -26.316549 96.468552
3790000000 -28.407421 49.787201 -0.37314108 153.07947 -0.36770958 153.0795 -26.352367 95.989265
3800000000 -28.380774 49.19989 -0.37306184 152.53755 -0.36874816 152.53615 -26.384047 95.373924
3810000000 -28.319885 48.449432 -0.3733896 151.99457 -0.3679761 151.99042 -26.421333 94.971367
3820000000 -28.285017 47.808048 -0.37463611 151.44894 -0.36941409 151.44273 -26.413691 94.409973
3830000000 -28.259701 47.282326 -0.37522563 150.907 -0.37064284 150.89946 -26.439991 93.925911
3840000000 -28.23908 46.815022 -0.3756611 150.36365 -0.37056896 150.35638 -26.457375 93.585274
3850000000 -28.246761 46.243755 -0.3764447 149.81981 -0.37141591 149.81686 -26.476307 93.240082
3860000000 -28.260696 45.727734 -0.3764447 149.27402 -0.37165841 149.27406 -26.473289 92.955513
3870000000 -28.297464 45.096191 -0.37679252 148.73167 -0.37241873 148.72997 -26.4991 92.51265
3880000000 -28.288452 44.434429 -0.37690571 148.19165 -0.37239334 148.19102 -26.49901 92.042076
3890000000 -28.322903 43.798592 -0.37733826 147.64703 -0.37271941 147.64665 -26.521034 91.591904
3900000000 -28.322939 42.85236 -0.37781858 147.1076 -0.37342602 147.09929 -26.527117 90.956894
3910000000 -28.322971 42.0742 -0.37837493 146.55975 -0.37328523 146.55905 -26.562407 90.481758
3920000000 -28.310209 41.323666 -0.37842125 146.02058 -0.37399703 146.01903 -26.580708 89.915947
3930000000 -28.285879 40.671303 -0.37809253 145.47461 -0.3746728 145.47073 -26.597738 89.350044
3940000000 -28.291775 39.944981 -0.37865284 144.92795 -0.37451562 144.92635 -26.636183 88.795815
3950000000 -28.275068 39.587093 -0.37955788 144.38374 -0.37459886 144.38194 -26.684559 88.3787
3960000000 -28.219221 39.179043 -0.38029724 143.8398 -0.37526259 143.83632 -26.728491 87.908897
3970000000 -28.222185 38.654587 -0.38034812 143.29849 -0.37578642 143.28938 -26.755569 87.579636
3980000000 -28.216064 38.469822 -0.38054278 142.75072 -0.37623128 142.75302 -26.761772 87.269371
3990000000 -28.232931 37.965435 -0.3803173 142.20512 -0.37640291 142.20692 -26.765297 86.957771
4000000000 -28.237955 37.290379 -0.38144794 141.66553 -0.37767231 141.66248 -26.780588 86.589653
4010000000 -28.282297 36.687889 -0.38179022 141.12077 -0.37752491 141.12016 -26.785809 86.064377
4020000000 -28.299356 35.953865 -0.38280052 140.57816 -0.37871158 140.57109 -26.754171 85.640793
4030000000 -28.336721 35.148701 -0.3826015 140.03362 -0.37889689 140.03065 -26.778294 85.23098
4040000000 -28.345232 34.303673 -0.3828316 139.49062 -0.37919292 139.49345 -26.808094 84.541634
4050000000 -28.359049 33.635624 -0.38330179 138.94264 -0.37848225 138.9449 -26.811911 84.033676
4060000000 -28.333342 32.801418 -0.38337022 138.40005 -0.37934715 138.39798 -26.84482 83.718117
4070000000 -28.339993 32.240776 -0.38333884 137.85522 -0.37917399 137.85208 -26.881823 83.28437
4080000000 -28.331396 31.656828 -0.38514426 137.31091 -0.37920195 137.30498 -26.911045 82.944397
4090000000 -28.310371 31.196718 -0.38491967 136.76701 -0.37992346 136.75899 -26.963839 82.70784
4100000000 -28.29855 30.90132 -0.38559487 136.21709 -0.38095874 136.21249 -26.98016 82.445869
4110000000 -28.307144 30.294538 -0.38659561 135.67519 -0.38066965 135.67216 -27.024511 82.090668
4120000000 -28.315006 29.996286 -0.38595334 135.12984 -0.38163391 135.12579 -27.032396 81.590652
4130000000 -28.341198 29.648096 -0.38675463 134.58488 -0.3828367 134.58517 -27.045277 81.318871
4140000000 -28.368076 29.027102 -0.38717684 134.04503 -0.3836855 134.04031 -27.063 80.869087
4150000000 -28.403778 28.577135 -0.38743266 133.49986 -0.38377145 133.49942 -27.067638 80.452774
4160000000 -28.458469 27.834116 -0.38896489 132.95552 -0.3837952 132.95512 -27.071569 79.873528
4170000000 -28.493866 27.160711 -0.38780683 132.41624 -0.38460967 132.41365 -27.069618 79.356247
4180000000 -28.499886 26.346439 -0.38829312 131.87218 -0.38447562 131.86835 -27.086914 78.877068
4190000000 -28.50864 25.59009 -0.38761693 131.33279 -0.38424259 131.32355 -27.135542 78.346992
4200000000 -28.501272 25.073214 -0.38892046 130.77916 -0.38459668 130.78011 -27.16584 77.856194
4210000000 -28.489943 24.35516 -0.38923246 130.23688 -0.38480031 130.23083 -27.206308 77.445602
4220000000 -28.507868 23.811117 -0.38982934 129.68611 -0.38543138 129.68568 -27.256271 77.285431
4230000000 -28.506773 23.526136 -0.38989162 129.13867 -0.3861528 129.13812 -27.311415 76.926079
4240000000 -28.514462 22.999357 -0.39149413 128.6006 -0.38710976 128.59697 -27.327734 76.66526
4250000000 -28.517275 22.846247 -0.39227945 128.04953 -0.38678801 128.05476 -27.331364 76.317474
4260000000 -28.539221 22.363087 -0.39196894 127.51125 -0.38812584 127.51247 -27.325941 75.918152
4270000000 -28.604124 22.048109 -0.39302579 126.97003 -0.38790646 126.96808 -27.337431 75.665634
4280000000 -28.659397 21.523798 -0.39214799 126.42809 -0.38882986 126.4281 -27.348965 75.28157
4290000000 -28.680563 20.816231 -0.39320943 125.88924 -0.38903144 125.88586 -27.343054 74.814842
4300000000 -28.741571 20.006584 -0.3932049 125.34459 -0.38931343 125.34293 -27.325657 74.591904
4310000000 -28.754889 19.07243 -0.39308587 124.80433 -0.39012441 124.80187 -27.343258 73.86351
4320000000 -28.769728 18.294334 -0.39404437 124.25823 -0.38985652 124.25626 -27.385761 73.468094
4330000000 -28.795164 17.590408 -0.39373457 123.71169 -0.39064381 123.71022 -27.432211 72.984245
4340000000 -28.81752 16.877245 -0.39381367 123.16611 -0.39030367 123.16555 -27.47584 72.531097
4350000000 -28.799578 16.26195 -0.39431196 122.62526 -0.39123407 122.61635 -27.511925 72.207672
4360000000 -28.811363 15.904523 -0.3955968 122.08056 -0.39231402 122.07347 -27.562487 71.861473
4370000000 -28.84931 15.65192 -0.39585 121.53252 -0.3921389 121.5262 -27.583302 71.747917
4380000000 -28.854189 15.349126 -0.39714977 120.99197 -0.39236075 120.98809 -27.586552 71.399437
4390000000 -28.861897 15.015377 -0.39669427 120.44868 -0.3936677 120.44347 -27.595985 71.184578
4400000000 -28.934742 14.537187 -0.3981455 119.90697 -0.39285803 119.90376 -27.599316 71.054695
4410000000 -28.965057 14.058025 -0.39817983 119.36449 -0.39404494 119.36022 -27.59861 70.698517
4420000000 -29.060875 13.379865 -0.39819998 118.82037 -0.39443046 118.81954 -27.60866 70.297302
4430000000 -29.149431 12.395112 -0.39824933 118.27795 -0.394687 118.27552 -27.590166 69.845505
4440000000 -29.178677 11.54355 -0.39908895 117.73783 -0.39401886 117.73335 -27.616369 69.363167
4450000000 -29.208818 10.730831 -0.39814806 117.19258 -0.39503571 117.19199 -27.663307 68.868027
4460000000 -29.270859 9.8590021 -0.39838779 116.64477 -0.39518654 116.646 -27.675243 68.576103
4470000000 -29.295542 8.981164 -0.39987111 116.1012 -0.39446107 116.09954 -27.723467 68.398048
4480000000 -29.29505 8.4493666 -0.40078455 115.55531 -0.39517489 115.55243 -27.767511 68.103271
4490000000 -29.335941 8.0077677 -0.40062103 115.00784 -0.39596543 115.01245 -27.787968 68.183563
4500000000 -29.360373 7.613122 -0.40113688 114.46769 -0.39590305 114.46478 -27.804174 67.980675
4510000000 -29.434416 7.3687592 -0.40126064 113.92074 -0.39683494 113.92052 -27.829845 67.859207
4520000000 -29.480347 7.2620673 -0.40214968 113.37485 -0.39760789 113.3734 -27.86342 67.430573
4530000000 -29.516254 6.7385859 -0.40255976 112.82849 -0.39824536 112.83352 -27.893147 67.220688
4540000000 -29.591732 6.4670391 -0.40274948 112.28243 -0.39760336 112.28405 -27.924164 66.711937
4550000000 -29.62764 5.6864576 -0.40412888 111.73865 -0.39865279 111.73653 -27.90472 66.353218
4560000000 -29.720993 4.9933476 -0.40340048 111.19386 -0.39954785 111.19474 -27.945068 65.955734
4570000000 -29.772673 4.1826835 -0.40318519 110.65163 -0.39950952 110.64886 -27.955683 65.417099
4580000000 -29.825514 3.3429298 -0.40450361 110.10351 -0.39953193 110.10361 -27.973238 65.233475
4590000000 -29.895884 2.4449229 -0.40362632 109.55808 -0.39935654 109.56066 -28.001169 64.82943
4600000000 -29.950413 1.734853 -0.40463147 109.0132 -0.40012202 109.01358 -28.035318 64.811607
4610000000 -29.999699 0.97261733 -0.40464169 108.46488 -0.40041977 108.46158 -28.068174 64.617455
4620000000 -30.053282 0.50397158 -0.40499404 107.92016 -0.40082997 107.9171 -28.101641 64.365189
4630000000 -30.075108 -0.093195342 -0.4060359 107.37155 -0.40221727 107.37048 -28.121763 64.061012
4640000000 -30.125055 -0.50969589 -0.4067235 106.8292 -0.40280572 106.82536 -28.1632 63.816582
4650000000 -30.192244 -0.78677851 -0.40691596 106.2844 -0.40281081 106.27786 -28.169121 63.414631
4660000000 -30.254887 -1.0778024 -0.40792474 105.73833 -0.40344054 105.7357 -28.173655 63.115429
4670000000 -30.358938 -1.4758211 -0.40819487 105.19466 -0.40322408 105.19607 -28.193502 63.000725
4680000000 -30.47435 -2.0787895 -0.40882623 104.64552 -0.40333259 104.65765 -28.22616 62.817722
4690000000 -30.589769 -2.5709229 -0.40831515 104.10717 -0.40435389 104.10618 -28.230862 62.560101
4700000000 -30.705599 -3.2599082 -0.40822446 103.56702 -0.40466669 103.56467 -28.24526 62.231445
4710000000 -30.795055 -3.9682782 -0.40783745 103.02005 -0.40530863 103.01932 -28.290422 61.795959
4720000000 -30.861019 -4.7537527 -0.40805924 102.47525 -0.40411723 102.47114 -28.338154 61.481239
4730000000 -30.916307 -5.7368712 -0.40856174 101.9252 -0.40484175 101.92593 -28.373016 61.151428
4740000000 -31.016672 -6.6681256 -0.40852079 101.37744 -0.40456697 101.37945 -28.407803 61.011395
4750000000 -31.063803 -7.5777926 -0.40887657 100.8351 -0.4058972 100.8328 -28.406197 60.615559
4760000000 -31.096767 -8.3355923 -0.41043004 100.29014 -0.4071306 100.28633 -28.403637 60.521542
4770000000 -31.157898 -8.9308233 -0.41133887 99.741867 -0.40651202 99.746674 -28.432493 60.312553
4780000000 -31.226614 -9.3567142 -0.41182494 99.207321 -0.40819174 99.203529 -28.431116 60.137215
4790000000 -31.341267 -9.8932276 -0.41255587 98.664185 -0.40807372 98.662971 -28.415827 60.100735
4800000000 -31.471266 -10.50805 -0.41273636 98.121803 -0.40830892 98.11924 -28.451565 59.905037
4810000000 -31.627447 -11.175433 -0.41245398 97.577888 -0.40863198 97.580994 -28.442965 59.624485
4820000000 -31.709578 -11.713465 -0.4121685 97.039734 -0.4087972 97.037308 -28.471527 59.283154
4830000000 -31.772238 -12.310346 -0.41220748 96.488876 -0.40940076 96.497414 -28.521538 59.085316
4840000000 -31.903061 -13.142427 -0.41197211 95.949928 -0.4090842 95.947029 -28.543076 58.786148
4850000000 -32.005558 -13.81845 -0.41255018 95.40506 -0.40777916 95.405052 -28.558289 58.291718
4860000000 -32.070267 -14.686654 -0.41111946 94.863785 -0.40898606 94.856903 -28.629335 58.109562
4870000000 -32.187473 -15.4057 -0.41309392 94.311768 -0.40886888 94.310608 -28.639496 57.794712
4880000000 -32.276684 -16.166182 -0.41429946 93.764809 -0.41013926 93.76564 -28.692068 57.639545
4890000000 -32.379524 -17.021477 -0.41371715 93.223526 -0.41046587 93.217072 -28.667688 57.599998
4900000000 -32.475712 -17.402588 -0.41523078 92.682564 -0.41205749 92.673912 -28.669052 57.169659
4910000000 -32.568352 -18.136141 -0.41556773 92.138435 -0.41210672 92.131989 -28.690161 56.956356
4920000000 -32.674801 -18.513842 -0.41641954 91.594826 -0.41250578 91.592712 -28.725489 56.657196
4930000000 -32.8582 -19.177996 -0.41627339 91.048111 -0.41218045 91.050308 -28.738918 56.234482
4940000000 -33.014191 -20.384684 -0.41720966 90.509949 -0.41271245 90.507019 -28.749626 55.941704
4950000000 -33.181133 -20.856724 -0.41738605 89.966103 -0.41338062 89.961349 -28.790068 55.433685
4960000000 -33.253849 -21.880547 -0.41736239 89.422203 -0.41373083 89.424187 -28.808182 54.928677
4970000000 -33.358299 -22.728956 -0.4177289 88.880486 -0.41426757 88.875977 -28.845364 54.649265
4980000000 -33.500198 -23.62344 -0.4174456 88.334557 -0.41374591 88.333115 -28.891579 54.665699
4990000000 -33.609245 -24.720764 -0.41745928 87.78701 -0.41337806 87.78611 -28.919062 54.466816
5000000000 -33.76635 -25.817287 -0.41759837 87.23867 -0.41339114 87.235298 -28.959299 54.188831
5010000000 -33.851948 -26.650177 -0.41803071 86.6931 -0.41395378 86.685402 -28.991594 54.174328
5020000000 -34.052185 -27.380785 -0.41834223 86.1436 -0.41575089 86.13884 -29.026461 53.843781
5030000000 -34.193069 -28.224092 -0.41901955 85.596176 -0.41595173 85.592873 -29.051018 53.537296
5040000000 -34.298038 -29.083366 -0.41934368 85.045067 -0.41808742 85.046196 -29.094023 53.326641
5050000000 -34.398426 -30.05887 -0.42076173 84.503006 -0.41733932 84.502129 -29.105961 52.912807
5060000000 -34.654312 -30.537363 -0.42099386 83.962898 -0.41778818 83.95842 -29.175095 52.537689
5070000000 -34.803913 -31.531248 -0.42225125 83.417473 -0.41825417 83.412575 -29.181507 52.484802
5080000000 -34.997623 -32.59697 -0.42226639 82.87265 -0.41856655 82.864342 -29.185074 52.224155
5090000000 -35.165421 -33.709656 -0.42219278 82.32476 -0.41774258 82.328537 -29.224915 52.038185
5100000000 -35.382687 -34.705395 -0.42225268 81.783813 -0.41768643 81.783043 -29.280247 51.776466
5110000000 -35.541969 -36.062412 -0.42223614 81.239273 -0.41755876 81.233452 -29.32234 51.689812
5120000000 -35.702454 -37.426174 -0.42230976 80.692146 -0.41840181 80.687126 -29.362888 51.629787
5130000000 -35.843254 -39.200211 -0.42267179 80.142647 -0.41741881 80.140137 -29.36677 51.497532
5140000000 -35.94516 -40.661293 -0.42291689 79.587463 -0.41879061 79.582466 -29.418901 51.152576
5150000000 -36.114803 -41.898918 -0.42334321 79.043564 -0.4197152 79.040062 -29.456989 50.69656
5160000000 -36.204926 -43.237736 -0.42477626 78.500458 -0.42014346 78.499077 -29.49658 50.309399
5170000000 -36.318439 -44.727215 -0.42576492 77.950508 -0.42127824 77.9487 -29.521582 50.019569
5180000000 -36.396458 -45.581493 -0.42597821 77.40815 -0.42153096 77.405746 -29.571815 49.965935
5190000000 -36.638916 -47.325787 -0.42636627 76.867622 -0.42171323 76.866432 -29.603977 49.68885
5200000000 -36.81847 -48.178432 -0.42648134 76.324051 -0.42142001 76.324196 -29.629875 49.323467
5210000000 -37.024784 -49.493233 -0.42712137 75.781151 -0.42203218 75.775024 -29.690287 49.394993
5220000000 -37.275257 -50.89259 -0.42643937 75.241089 -0.42242587 75.236649 -29.746977 49.112907
5230000000 -37.375435 -52.099251 -0.42591938 74.697708 -0.42356268 74.689415 -29.76025 49.076019
5240000000 -37.547665 -53.129471 -0.42541203 74.152534 -0.42235854 74.145744 -29.812094 48.863674
5250000000 -37.52219 -54.711903 -0.42541802 73.60479 -0.42175889 73.591637 -29.836428 48.503475
5260000000 -37.657349 -56.711895 -0.42581746 73.05085 -0.42130706 73.046638 -29.839962 48.323013
5270000000 -37.743225 -58.967525 -0.42621291 72.504814 -0.42250746 72.501991 -29.875048 47.846378
5280000000 -37.846069 -60.550545 -0.4277052 71.959373 -0.42355409 71.951408 -29.944389 47.627522
5290000000 -37.926685 -62.095325 -0.42849681 71.414276 -0.42396507 71.408478 -29.965731 47.467514
5300000000 -38.015575 -63.903011 -0.4298358 70.869583 -0.42435208 70.864365 -30.026606 47.345974
5310000000 -38.155823 -64.922836 -0.43041173 70.326324 -0.42542145 70.3246 -30.10619 47.374912
5320000000 -38.264889 -67.047089 -0.42995185 69.787575 -0.42510197 69.78038 -30.156891 47.344967
5330000000 -38.464291 -68.787071 -0.43035311 69.246567 -0.42626262 69.245033 -30.234476 47.351524
5340000000 -38.714569 -70.522118 -0.4299064 68.704231 -0.42543885 68.696129 -30.286781 47.1731
5350000000 -38.868881 -72.34375 -0.42986095 68.156509 -0.4261007 68.154915 -30.383858 47.294209
5360000000 -39.155293 -74.600105 -0.42975894 67.617134 -0.42668325 67.608734 -30.425863 47.030476
5370000000 -39.185463 -75.534988 -0.42939284 67.071678 -0.42577404 67.060059 -30.486132 46.934723
5380000000 -39.312065 -77.384583 -0.42963633 66.517471 -0.42632571 66.515167 -30.479151 46.869064
5390000000 -39.390778 -78.914162 -0.43026909 65.972359 -0.42570582 65.962769 -30.533918 46.425198
5400000000 -39.3866 -80.743073 -0.43109488 65.42424 -0.42628917 65.41581 -30.620163 46.252354
5410000000 -39.303143 -83.632843 -0.43225771 64.876419 -0.42804199 64.871635 -30.647648 46.363449
5420000000 -39.367912 -85.953728 -0.4316155 64.331009 -0.42883536 64.32663 -30.742329 46.432358
5430000000 -39.401939 -88.612167 -0.4329429 63.794746 -0.42967376 63.780579 -30.769808 46.117096
5440000000 -39.444965 -90.804588 -0.43367967 63.247169 -0.42977208 63.243858 -30.865438 46.097752
5450000000 -39.537537 -92.3741 -0.4347167 62.705364 -0.42969692 62.702599 -30.900515 46.29285
5460000000 -39.609032 -93.991341 -0.43380553 62.157558 -0.43016475 62.156914 -30.946375 46.180851
5470000000 -39.710506 -95.979614 -0.43541804 61.614918 -0.43101427 61.605526 -30.962097 46.582939
5480000000 -39.777321 -98.630417 -0.43571678 61.073715 -0.43157777 61.070232 -30.950228 46.361298
5490000000 -39.904812 -100.41554 -0.435406 60.53447 -0.43105888 60.52726 -31.019426 46.478771
5500000000 -39.926975 -103.68145 -0.43418255 59.98505 -0.43060294 59.985481 -31.031805 46.717419
5510000000 -40.057674 -106.05387 -0.43471071 59.43861 -0.42988154 59.434353 -31.039236 47.106667
5520000000 -40.086872 -107.33761 -0.43440112 58.891865 -0.43144453 58.886963 -31.024473 47.417171
5530000000 -40.062077 -109.75226 -0.43464088 58.340702 -0.42990497 58.329391 -31.12921 47.408516
5540000000 -40.077534 -111.96401 -0.43527094 57.787186 -0.4309997 57.781891 -31.191124 47.469788
5550000000 -39.962349 -114.34031 -0.43616667 57.241245 -0.43272269 57.230221 -31.216503 47.600082
5560000000 -40.094181 -115.74906 -0.43702623 56.690006 -0.43353781 56.683929 -31.286108 47.867531
5570000000 -40.08387 -117.15705 -0.43733341 56.146751 -0.43411335 56.139229 -31.401155 48.164009
5580000000 -40.130463 -119.05946 -0.43814397 55.599937 -0.43464261 55.598473 -31.428474 48.489651
5590000000 -40.061337 -122.47753 -0.43905032 55.053356 -0.43474445 55.051056 -31.484522 49.064335
5600000000 -40.096554 -125.20844 -0.43939 54.516907 -0.43540084 54.511833 -31.460564 49.472366
5610000000 -40.150299 -128.06497 -0.4392806 53.981667 -0.43617412 53.961788 -31.495253 49.903023
5620000000 -40.062492 -130.28362 -0.43972972 53.431664 -0.43593141 53.424984 -31.487871 49.903591
5630000000 -40.128189 -132.87035 -0.43910703 52.884933 -0.43617985 52.881504 -31.482624 50.206085
5640000000 -40.051373 -135.13454 -0.43849418 52.335762 -0.43605962 52.331612 -31.461758 50.253132
5650000000 -40.176956 -136.06897 -0.43856347 51.786545 -0.43529269 51.779434 -31.52043 50.249569
5660000000 -40.140137 -136.70351 -0.43939286 51.23695 -0.43567786 51.227737 -31.521061 50.083694
5670000000 -40.003254 -138.24216 -0.44047654 50.681408 -0.43676317 50.677261 -31.580809 50.005924
5680000000 -39.974762 -138.97615 -0.44103321 50.137787 -0.43701535 50.130711 -31.666059 50.329811
5690000000 -39.879929 -140.90143 -0.44180059 49.591774 -0.43787795 49.587616 -31.675688 51.020126
5700000000 -39.892319 -143.18756 -0.44213966 49.051781 -0.43881291 49.036674 -31.700438 51.323917
5710000000 -39.718231 -145.47855 -0.44206828 48.500813 -0.43876451 48.492188 -31.704088 52.266838
5720000000 -39.839115 -148.34029 -0.44229355 47.963383 -0.43915972 47.952892 -31.678751 52.380421
5730000000 -39.74028 -150.57669 -0.44324577 47.419979 -0.43949312 47.408798 -31.635834 52.913914
5740000000 -39.610126 -153.24382 -0.44311994 46.872509 -0.43948853 46.867245 -31.631289 53.401638
5750000000 -39.583477 -155.96609 -0.44373861 46.33165 -0.44022584 46.325397 -31.593498 53.772644
5760000000 -39.481346 -158.29979 -0.44359067 45.786041 -0.43955326 45.777096 -31.530468 53.843513
5770000000 -39.559879 -160.35056 -0.44284791 45.239723 -0.43948337 45.231544 -31.494919 53.639137
5780000000 -39.498924 -162.68459 -0.44356686 44.688698 -0.4392949 44.685322 -31.505878 53.425701
5790000000 -39.423233 -163.49802 -0.44349691 44.142303 -0.44031179 44.131863 -31.5058 53.436821
5800000000 -39.368668 -163.9194 -0.44388741 43.590893 -0.44119626 43.583076 -31.51857 53.746994
5810000000 -39.348045 -164.46477 -0.44468972 43.045101 -0.44115499 43.041321 -31.566099 54.023022
5820000000 -39.186096 -166.10422 -0.44575807 42.500694 -0.44251454 42.487667 -31.515358 54.684814
5830000000 -39.107342 -168.56355 -0.44645026 41.95443 -0.44300556 41.947109 -31.546738 55.428623
5840000000 -39.106926 -169.85172 -0.44594136 41.410435 -0.44356573 41.405872 -31.54871 55.824509
5850000000 -39.156849 -172.56712 -0.44747743 40.863079 -0.44401127 40.861202 -31.531107 56.239601
5860000000 -39.079498 -174.63271 -0.44733453 40.318836 -0.44470692 40.318321 -31.463606 56.526112
5870000000 -39.160057 -177.39308 -0.44779682 39.775002 -0.44513309 39.77301 -31.412785 56.639908
5880000000 -39.024891 -179.49362 -0.44848448 39.233784 -0.44520736 39.229126 -31.361338 56.64312
5890000000 -38.973839 177.89232 -0.44885847 38.688038 -0.44575778 38.685955 -31.292414 56.819492
5900000000 -38.765312 175.39645 -0.44915587 38.144142 -0.44480786 38.135624 -31.260046 56.821545
5910000000 -38.660614 173.85965 -0.44858408 37.599323 -0.44480443 37.591084 -31.233969 56.799301
5920000000 -38.509808 171.95357 -0.44821066 37.046047 -0.44607446 37.042786 -31.247488 56.954472
5930000000 -38.408436 170.28242 -0.44974899 36.493954 -0.44573081 36.492466 -31.255022 57.005322
5940000000 -38.30143 169.0786 -0.45054722 35.947872 -0.44660231 35.941219 -31.238287 57.570217
5950000000 -38.220226 168.22415 -0.45084929 35.401424 -0.44773456 35.396633 -31.208172 57.587185
5960000000 -38.185326 166.93858 -0.45122522 34.858673 -0.44887254 34.850437 -31.174965 57.665634
5970000000 -38.164253 165.42641 -0.4524233 34.31242 -0.44846812 34.308506 -31.132656 57.869694
5980000000 -38.052509 163.69043 -0.45294505 33.767723 -0.44953537 33.762825 -31.055798 58.0061
5990000000 -38.048492 161.79735 -0.45372462 33.221714 -0.44977739 33.219364 -30.940172 58.048714
6000000000 -37.906715 160.5477 -0.45466784 32.676266 -0.44994909 32.675468 -30.895836 57.896236
6010000000 -37.698849 158.26909 -0.45410538 32.133907 -0.45020321 32.127129 -30.860781 57.956005
6020000000 -37.530396 156.34322 -0.45475322 31.590082 -0.4499554 31.586163 -30.796082 58.012993
6030000000 -37.283012 154.39259 -0.45448849 31.041687 -0.44978747 31.03974 -30.760458 58.041733
6040000000 -37.088192 152.12695 -0.45343468 30.493328 -0.44958821 30.487171 -30.743046 57.90797
6050000000 -36.802109 150.50127 -0.45462272 29.946159 -0.45047915 29.938932 -30.682516 57.917164
6060000000 -36.713776 149.08717 -0.454907 29.394939 -0.45084873 29.387251 -30.645918 58.255116
6070000000 -36.59816 147.13402 -0.45491332 28.845348 -0.4520016 28.84137 -30.57292 58.306923
6080000000 -36.531921 146.25963 -0.45557392 28.294697 -0.45318639 28.289627 -30.504898 58.271267
6090000000 -36.52142 144.90059 -0.45721436 27.743971 -0.45350304 27.748604 -30.457476 58.595436
6100000000 -36.379189 143.55153 -0.45827168 27.203329 -0.45382893 27.201778 -30.371895 58.66119
6110000000 -36.214909 142.29933 -0.45905021 26.660585 -0.45435658 26.656994 -30.287575 59.130054
6120000000 -36.034088 140.9825 -0.45878235 26.115578 -0.45510161 26.108246 -30.204056 59.247959
6130000000 -35.873302 139.84456 -0.45904559 25.571894 -0.45542902 25.563715 -30.145733 59.167103
6140000000 -35.712379 138.41985 -0.45921507 25.02684 -0.45539886 25.019119 -30.137806 58.877605
6150000000 -35.507294 137.09715 -0.45808846 24.481573 -0.45569697 24.478531 -30.109514 58.537804
6160000000 -35.348312 135.74666 -0.45863646 23.937006 -0.45613256 23.926819 -30.085533 58.303131
6170000000 -35.163067 134.86281 -0.45870551 23.385422 -0.45631284 23.376055 -30.035879 57.883854
6180000000 -34.985645 132.93568 -0.45932958 22.834225 -0.45636949 22.8298 -29.993332 57.505421
6190000000 -34.827602 131.99634 -0.45928758 22.282434 -0.45638558 22.277765 -29.942287 57.527489
6200000000 -34.691551 130.88864 -0.46131572 21.731516 -0.45703059 21.729469 -29.858768 57.496548
6210000000 -34.543762 129.66647 -0.46225083 21.184067 -0.45730236 21.181484 -29.791767 57.730633
6220000000 -34.392944 128.71741 -0.46272594 20.644064 -0.45828608 20.633354 -29.700705 57.869583
6230000000 -34.273922 127.69372 -0.46325812 20.099173 -0.45902976 20.090073 -29.587738 58.075584
6240000000 -34.06934 126.70501 -0.46363398 19.549129 -0.45960495 19.549809 -29.534002 58.261528
6250000000 -33.929176 125.44629 -0.46357405 19.007229 -0.46066576 19.001545 -29.435677 58.349575
6260000000 -33.794956 123.95808 -0.46424031 18.466125 -0.46129182 18.459356 -29.386667 58.342117
6270000000 -33.650723 122.67641 -0.46443734 17.921356 -0.46142828 17.918139 -29.338799 58.164684
6280000000 -33.594921 121.47702 -0.46502274 17.379341 -0.46126994 17.367901 -29.297037 57.9104
6290000000 -33.395847 120.08099 -0.46531579 16.836166 -0.46166405 16.829082 -29.261471 57.530331
6300000000 -33.203022 118.92563 -0.46566272 16.287607 -0.46130937 16.280413 -29.225042 57.383625
6310000000 -33.052994 117.99849 -0.46615404 15.737656 -0.46124721 15.73092 -29.210514 57.229919
6320000000 -32.885658 117.24114 -0.46635637 15.188099 -0.46155062 15.185348 -29.183167 57.085812
6330000000 -32.699821 116.56142 -0.46669444 14.64272 -0.46205705 14.634199 -29.134747 57.224041
6340000000 -32.539223 115.74753 -0.46669587 14.099014 -0.46279159 14.090125 -29.083838 57.270367
6350000000 -32.424187 115.21619 -0.4672983 13.54674 -0.46369848 13.539267 -29.005049 57.059086
6360000000 -32.339901 114.59209 -0.46786422 13.000406 -0.4643054 12.994581 -28.932384 57.066467
6370000000 -32.256702 113.41653 -0.46876872 12.459453 -0.46516451 12.449292 -28.868399 56.881855
6380000000 -32.214626 112.7254 -0.46929097 11.911527 -0.4655872 11.906669 -28.809727 56.628117
6390000000 -32.097172 111.35043 -0.46996328 11.368233 -0.46621254 11.363931 -28.743912 56.288517
6400000000 -32.018784 110.23125 -0.47034261 10.822474 -0.46737471 10.816117 -28.705189 56.014755
6410000000 -31.884928 109.57039 -0.47065735 10.274366 -0.46701813 10.276907 -28.657082 55.843151
6420000000 -31.71686 108.59071 -0.47040981 9.7333565 -0.46786106 9.7327166 -28.620569 55.515537
6430000000 -31.581085 108.43314 -0.47059762 9.1865892 -0.46658838 9.1850462 -28.594097 55.15448
6440000000 -31.41407 107.94795 -0.46957362 8.6383533 -0.46717781 8.6385193 -28.591047 55.012775
6450000000 -31.265022 107.0331 -0.47027135 8.0910969 -0.46715188 8.0816689 -28.568892 54.814526
6460000000 -31.114374 106.44012 -0.47183743 7.541398 -0.46814099 7.5349374 -28.491327 54.712772
6470000000 -30.980961 105.90424 -0.47280365 6.9917641 -0.46885523 6.9876285 -28.378971 54.61232
6480000000 -30.911972 105.18225 -0.47320053 6.44136 -0.47069541 6.4401331 -28.308949 54.27462
6490000000 -30.824732 104.47249 -0.47426409 5.8979177 -0.47080621 5.893084 -28.223257 53.997826
6500000000 -30.761272 103.68497 -0.474664 5.3522539 -0.47149289 5.3428645 -28.181334 53.759403
6510000000 -30.688227 102.67529 -0.4756479 4.8090758 -0.47160023 4.8012218 -28.099155 53.591328
6520000000 -30.577187 102.0609 -0.47676462 4.2620301 -0.47201779 4.2573204 -28.046507 53.446438
6530000000 -30.503435 101.3055 -0.47664157 3.7188063 -0.47271535 3.7114155 -28.003242 53.174793
6540000000 -30.364185 100.69237 -0.4770073 3.1713603 -0.47272947 3.1656547 -27.970827 53.226639
6550000000 -30.284138 99.835342 -0.47605169 2.631295 -0.47249627 2.6213794 -27.963717 52.889755
6560000000 -30.168297 99.214943 -0.47656095 2.0816534 -0.47281808 2.0710981 -27.948244 52.709286
6570000000 -30.047882 98.669136 -0.47638446 1.5307983 -0.47295287 1.5227983 -27.904167 52.450726
6580000000 -29.908756 98.060265 -0.47682586 0.97849363 -0.472767 0.96952212 -27.859753 52.167587
6590000000 -29.803518 97.226204 -0.4771688 0.42783895 -0.4741945 0.42290622 -27.804417 51.924198
6600000000 -29.733109 96.602219 -0.47783744 -0.12052952 -0.47437698 -0.13427033 -27.733547 51.613876
6610000000 -29.648767 95.802643 -0.47900647 -0.6674549 -0.4754726 -0.67610294 -27.667553 51.421288
6620000000 -29.560045 95.391693 -0.47957361 -1.2135205 -0.47663608 -1.2248145 -27.62401 51.160091
6630000000 -29.505575 94.861198 -0.48049733 -1.7597804 -0.47675249 -1.7677143 -27.579132 51.118309
6640000000 -29.430832 94.27018 -0.48074079 -2.306499 -0.47686371 -2.309598 -27.512999 50.939045
6650000000 -29.375353 93.732819 -0.48172462 -2.8499916 -0.47744676 -2.8584766 -27.493898 50.747467
6660000000 -29.303928 93.237305 -0.48139 -3.3971524 -0.47830644 -3.4036794 -27.446991 50.34938
6670000000 -29.20792 92.353142 -0.48185506 -3.9422069 -0.47854632 -3.9504077 -27.423374 50.280083
6680000000 -29.114723 91.666336 -0.48174921 -4.4875093 -0.47872031 -4.4962344 -27.369112 49.994709
6690000000 -29.000286 90.750946 -0.48229328 -5.0385518 -0.47921833 -5.0414195 -27.333586 49.723625
6700000000 -28.925255 89.824821 -0.48240349 -5.5836282 -0.47857842 -5.5908589 -27.307844 49.342098
6710000000 -28.788992 89.390556 -0.48264128 -6.1342788 -0.47882551 -6.1413484 -27.256155 49.043587
6720000000 -28.716452 88.614838 -0.48336309 -6.683032 -0.47984275 -6.6869354 -27.217224 48.718475
6730000000 -28.619043 88.256035 -0.48365012 -7.2366905 -0.4810479 -7.2424483 -27.152864 48.604919
6740000000 -28.533239 87.797943 -0.48474056 -7.7808518 -0.48121446 -7.7840071 -27.09099 48.1656
6750000000 -28.478157 87.588081 -0.48497182 -8.3276625 -0.48172721 -8.3346138 -27.058538 47.992054
6760000000 -28.407846 87.147232 -0.48610541 -8.8715858 -0.48220217 -8.8760004 -27.008406 47.716049
6770000000 -28.334154 86.448563 -0.48640132 -9.4157763 -0.48316172 -9.4240894 -26.947607 47.495266
6780000000 -28.300625 85.869583 -0.48704877 -9.9671583 -0.48348579 -9.9710712 -26.89901 47.043121
6790000000 -28.220879 84.942825 -0.48725671 -10.511089 -0.4834713 -10.514353 -26.845436 46.722275
6800000000 -28.183146 84.07827 -0.48721558 -11.051639 -0.48437908 -11.063912 -26.786697 46.37923
6810000000 -28.120859 83.300613 -0.48748228 -11.597609 -0.48501059 -11.601253 -26.748356 46.070862
6820000000 -28.036613 82.609367 -0.48829269 -12.145468 -0.4846167 -12.154984 -26.703222 45.827538
6830000000 -27.942207 81.942528 -0.48738295 -12.68971 -0.48550674 -12.699037 -26.660728 45.483006
6840000000 -27.872587 81.353928 -0.48770994 -13.236262 -0.48504737 -13.250368 -26.633158 45.322227
6850000000 -27.788286 81.009422 -0.48810616 -13.78561 -0.48660108 -13.794594 -26.561005 44.999954
6860000000 -27.71085 80.406754 -0.48874721 -14.335785 -0.48619431 -14.345561 -26.530825 44.704586
6870000000 -27.626345 80.173927 -0.48954856 -14.889147 -0.48689616 -14.89132 -26.486006 44.524811
6880000000 -27.578365 79.569153 -0.49128595 -15.428659 -0.48851979 -15.440479 -26.456486 44.278099
6890000000 -27.551136 79.01194 -0.49196225 -15.982759 -0.48864812 -15.986843 -26.426519 44.121784
6900000000 -27.485111 78.25795 -0.49262127 -16.526632 -0.4889839 -16.53055 -26.377878 43.740547
6910000000 -27.467388 77.344978 -0.49273115 -17.071753 -0.48961899 -17.079605 -26.331297 43.352272
6920000000 -27.43018 76.511688 -0.49307129 -17.618946 -0.4909274 -17.626228 -26.296032 43.0261
6930000000 -27.379997 75.665413 -0.49394771 -18.161936 -0.49174222 -18.169191 -26.26479 42.798599
6940000000 -27.312006 74.930519 -0.49456495 -18.706022 -0.49108332 -18.713598 -26.219143 42.592731
6950000000 -27.242519 74.298859 -0.49414262 -19.255768 -0.4905341 -19.259581 -26.194122 42.419567
6960000000 -27.177685 73.715561 -0.49450549 -19.803761 -0.49020576 -19.804522 -26.175097 42.106918
6970000000 -27.082525 73.214996 -0.49356517 -20.346668 -0.49067351 -20.353085 -26.135567 42.050369
6980000000 -27.018316 72.723862 -0.49436772 -20.899153 -0.4911387 -20.909792 -26.085608 41.737488
6990000000 -26.930479 72.030823 -0.49423891 -21.451607 -0.49209908 -21.454138 -26.051146 41.283859
7000000000 -26.839382 71.443726 -0.49568018 -21.997873 -0.49268475 -22.002993 -25.993685 40.782757
7010000000 -26.784285 71.003281 -0.49640563 -22.545441 -0.49327573 -22.552538 -25.943415 40.275032
7020000000 -26.721174 70.420074 -0.49673474 -23.094191 -0.49432361 -23.102554 -25.914558 40.004169
7030000000 -26.694317 69.892242 -0.4976058 -23.641424 -0.49553657 -23.646049 -25.879152 39.719536
7040000000 -26.638256 69.362305 -0.49861205 -24.18886 -0.49527454 -24.199293 -25.843771 39.43021
7050000000 -26.607191 68.779854 -0.49891374 -24.73443 -0.49576724 -24.742094 -25.797985 39.141819
7060000000 -26.577677 68.368004 -0.49883795 -25.286581 -0.49598429 -25.290142 -25.769796 38.938591
7070000000 -26.516954 67.701584 -0.4995003 -25.836586 -0.49654144 -25.835255 -25.725182 38.681599
7080000000 -26.470682 66.912941 -0.49953488 -26.378883 -0.49632728 -26.382069 -25.658657 38.464165
7090000000 -26.430315 66.295052 -0.50005966 -26.926474 -0.49752191 -26.929804 -25.601242 38.221123
7100000000 -26.348415 65.738922 -0.50007623 -27.472567 -0.4973402 -27.481955 -25.560373 37.896515
7110000000 -26.300667 64.949806 -0.50010788 -28.025198 -0.49751812 -28.032614 -25.50823 37.574368
7120000000 -26.203737 64.178436 -0.50069058 -28.568651 -0.49716574 -28.580927 -25.450489 37.230328
7130000000 -26.142126 63.815353 -0.50133783 -29.132198 -0.49809322 -29.134985 -25.434048 36.828648
7140000000 -26.075659 63.056122 -0.50168997 -29.676596 -0.49858531 -29.674376 -25.410984 36.532051
7150000000 -26.036194 62.516304 -0.50273204 -30.224506 -0.49980554 -30.230284 -25.394508 36.26527
7160000000 -26.012341 62.019547 -0.50465995 -30.772947 -0.50019675 -30.773994 -25.376539 35.898788
7170000000 -25.971716 61.693535 -0.5047707 -31.315834 -0.50030482 -31.321968 -25.341671 35.59988
7180000000 -25.930426 61.081406 -0.5052703 -31.861504 -0.50134975 -31.875193 -25.334743 35.327232
7190000000 -25.892864 60.447018 -0.50591242 -32.411808 -0.50101191 -32.415642 -25.272564 35.005463
7200000000 -25.856928 59.82877 -0.50582606 -32.960075 -0.50193322 -32.965439 -25.215647 34.640327
7210000000 -25.812935 59.139904 -0.50640655 -33.50219 -0.50315118 -33.51236 -25.144821 34.156181
7220000000 -25.762533 58.417339 -0.50612998 -34.052563 -0.50306046 -34.06234 -25.092651 33.669041
7230000000 -25.722368 57.749996 -0.50695783 -34.601284 -0.5036639 -34.609398 -25.033804 33.264332
7240000000 -25.64497 57.214283 -0.50709194 -35.151398 -0.50329769 -35.159828 -24.986038 32.904457
7250000000 -25.609941 56.624355 -0.50676143 -35.704575 -0.50478089 -35.713223 -24.948654 32.53278
7260000000 -25.54554 56.207214 -0.5080893 -36.255043 -0.50449598 -36.262058 -24.919958 32.177391
7270000000 -25.48328 55.800568 -0.50846934 -36.803371 -0.50616747 -36.807308 -24.882317 31.897663
7280000000 -25.415972 55.278183 -0.50971508 -37.350643 -0.5059278 -37.356495 -24.865395 31.557507
7290000000 -25.394445 54.644985 -0.50988215 -37.892628 -0.5072403 -37.902153 -24.83297 31.217909
7300000000 -25.329479 54.268467 -0.51031071 -38.443104 -0.50871617 -38.448704 -24.802412 30.889906
7310000000 -25.303291 53.780277 -0.51186389 -38.992321 -0.50968075 -38.995193 -24.743999 30.698645
7320000000 -25.277481 53.233677 -0.51193935 -39.536095 -0.50914896 -39.543732 -24.710165 30.101692
7330000000 -25.24299 52.679657 -0.51221865 -40.08453 -0.50965393 -40.089897 -24.657154 29.758202
7340000000 -25.198921 52.054443 -0.5125128 -40.632099 -0.51071978 -40.635342 -24.620792 29.410645
7350000000 -25.167875 51.37447 -0.51230747 -41.17947 -0.51027316 -41.184811 -24.569431 28.975603
7360000000 -25.117092 50.771225 -0.51243418 -41.725117 -0.5112229 -41.733246 -24.518362 28.552443
7370000000 -25.09054 50.160332 -0.5128082 -42.274796 -0.51096606 -42.274799 -24.447037 28.130127
7380000000 -25.061411 49.683968 -0.51293403 -42.825092 -0.51086158 -42.82946 -24.418232 27.733585
7390000000 -24.981457 49.1427 -0.51360381 -43.367882 -0.51189184 -43.379639 -24.377996 27.131845
7400000000 -24.932743 48.601402 -0.51498479 -43.925087 -0.51222682 -43.928658 -24.333635 26.940956
7410000000 -24.880163 48.094162 -0.51551932 -44.473396 -0.51230371 -44.475746 -24.304243 26.608627
7420000000 -24.818592 47.428768 -0.51664871 -45.022892 -0.51418364 -45.027336 -24.26729 26.475525
7430000000 -24.790752 46.833534 -0.51792097 -45.564724 -0.51460415 -45.570004 -24.222834 26.026222
7440000000 -24.756721 46.217415 -0.5183984 -46.114048 -0.51529694 -46.115093 -24.190937 25.690147
7450000000 -24.726923 45.651058 -0.51886106 -46.65506 -0.51674139 -46.65926 -24.146666 25.387486
7460000000 -24.719677 45.091213 -0.51856643 -47.204479 -0.51615715 -47.207092 -24.119104 25.03125
7470000000 -24.700829 44.598267 -0.51933885 -47.747021 -0.51590818 -47.754906 -24.076071 24.725233
7480000000 -24.694298 44.021317 -0.51909268 -48.294125 -0.51634723 -48.299305 -24.032276 24.163904
7490000000 -24.665802 43.495396 -0.5182339 -48.849594 -0.51650089 -48.845135 -23.998352 23.792542
7500000000 -24.641983 42.841927 -0.5191195 -49.393673 -0.51587147 -49.39798 -23.960718 23.136074
7510000000 -24.606264 42.210182 -0.51944101 -49.945206 -0.51683497 -49.9524 -23.927851 22.659399
7520000000 -24.575493 41.600929 -0.52071756 -50.496181 -0.51812774 -50.497135 -23.888092 22.047773
7530000000 -24.526886 40.964615 -0.52216268 -51.045868 -0.51779407 -51.053562 -23.835787 21.516504
7540000000 -24.465687 40.471581 -0.52294338 -51.595936 -0.5192858 -51.601265 -23.820313 21.039364
7550000000 -24.403938 39.94289 -0.52373648 -52.148331 -0.52058244 -52.151867 -23.778299 20.634892
7560000000 -24.36187 39.461483 -0.52497286 -52.691547 -0.52071786 -52.696529 -23.731552 20.302757
7570000000 -24.350792 39.097778 -0.52520156 -53.24102 -0.52137977 -53.249554 -23.694645 19.838949
7580000000 -24.298292 38.606335 -0.52547503 -53.788933 -0.52250135 -53.795376 -23.639727 19.537832
7590000000 -24.284756 38.138268 -0.52625984 -54.332932 -0.52217263 -54.344879 -23.587494 19.12117
7600000000 -24.262552 37.563496 -0.5259288 -54.881325 -0.52279329 -54.888363 -23.542847 18.725704
7610000000 -24.234907 36.85371 -0.52682734 -55.42667 -0.52354372 -55.435799 -23.481325 18.225243
7620000000 -24.207224 36.086727 -0.52644742 -55.979416 -0.52337992 -55.983528 -23.439741 17.676075
7630000000 -24.162617 35.344154 -0.52772522 -56.526558 -0.52428144 -56.541607 -23.397121 17.187426
7640000000 -24.110336 34.472919 -0.52805084 -57.073978 -0.52460277 -57.086514 -23.353067 16.700058
7650000000 -24.065338 33.672268 -0.52944022 -57.629749 -0.52483237 -57.636715 -23.317095 16.132711
7660000000 -24.015213 33.14323 -0.52935511 -58.179409 -0.52621835 -58.186253 -23.281363 15.76416
7670000000 -23.975454 32.619144 -0.52983004 -58.728725 -0.52612251 -58.736492 -23.245504 15.296622
7680000000 -23.958382 32.228718 -0.52952063 -59.271671 -0.52545166 -59.27668 -23.210855 14.883362
7690000000 -23.904207 31.747044 -0.53036028 -59.81319 -0.52770239 -59.827095 -23.187511 14.548144
7700000000 -23.866745 31.305872 -0.53105611 -60.367905 -0.52801841 -60.374863 -23.13278 14.155214
7710000000 -23.829191 30.754103 -0.53229284 -60.908909 -0.52911973 -60.923164 -23.089703 13.830491
7720000000 -23.814234 30.310699 -0.53193909 -61.455521 -0.52916884 -61.462845 -23.049427 13.26298
7730000000 -23.774858 29.779341 -0.5330326 -62.003639 -0.53000051 -62.012135 -23.002144 12.657477
7740000000 -23.756401 29.113314 -0.53326619 -62.547348 -0.53126353 -62.55888 -22.960636 12.345223
7750000000 -23.737572 28.443954 -0.53491336 -63.096962 -0.53102368 -63.100517 -22.930647 11.752942
7760000000 -23.721695 27.715073 -0.53471076 -63.642906 -0.53076744 -63.651264 -22.88974 11.254669
7770000000 -23.699997 27.119333 -0.53462911 -64.191208 -0.53148532 -64.19677 -22.878349 10.717524
7780000000 -23.682127 26.52396 -0.53368884 -64.737305 -0.5302757 -64.745789 -22.860661 10.146284
7790000000 -23.671658 25.839729 -0.53436738 -65.281654 -0.53109914 -65.296425 -22.832867 9.5901537
7800000000 -23.628155 25.320826 -0.53520882 -65.835793 -0.53177637 -65.835655 -22.825943 9.1162682
7810000000 -23.59672 24.785839 -0.53529549 -66.378235 -0.5324772 -66.385277 -22.789925 8.6295757
7820000000 -23.566582 24.285151 -0.53590518 -66.923347 -0.53309083 -66.931671 -22.750132 8.0968151
7830000000 -23.512852 23.767363 -0.5377025 -67.47142 -0.5330022 -67.476959 -22.720652 7.6496692
7840000000 -23.462454 23.158873 -0.53794748 -68.01828 -0.53404361 -68.025185 -22.688972 7.1063027
7850000000 -23.440542 22.625441 -0.53824455 -68.562775 -0.53487855 -68.573662 -22.659584 6.6388698
7860000000 -23.407162 22.029009 -0.539478 -69.110458 -0.53532714 -69.112679 -22.608355 6.1145339
7870000000 -23.396257 21.579418 -0.53913075 -69.654076 -0.53535408 -69.663971 -22.575783 5.5548987
7880000000 -23.38998 20.946125 -0.53938365 -70.197578 -0.53582144 -70.208145 -22.554466 5.0720091
7890000000 -23.375526 20.210972 -0.53944021 -70.745644 -0.53507942 -70.754768 -22.542171 4.5815992
7900000000 -23.350199 19.485498 -0.53861058 -71.293846 -0.53585804 -71.302368 -22.512407 4.1206894
7910000000 -23.32666 18.774498 -0.5390296 -71.841881 -0.53513592 -71.850235 -22.492811 3.5188241
7920000000 -23.285336 17.992746 -0.53876144 -72.389252 -0.53679967 -72.402527 -22.480785 3.0761087
7930000000 -23.262732 17.326338 -0.54061806 -72.942078 -0.53667253 -72.949387 -22.437893 2.6460474
7940000000 -23.192186 16.677832 -0.54106635 -73.486336 -0.53828734 -73.49733 -22.417555 2.1716273
7950000000 -23.163023 15.997837 -0.54171729 -74.039932 -0.53850067 -74.040833 -22.376532 1.6942489
7960000000 -23.102913 15.367571 -0.54211527 -74.580894 -0.53928077 -74.590477 -22.35611 1.232121
7970000000 -23.084541 14.8801 -0.54326063 -75.12709 -0.54011762 -75.141258 -22.336752 0.74394077
7980000000 -23.062246 14.401618 -0.54272205 -75.677155 -0.5403586 -75.686234 -22.317986 0.25968149
7990000000 -23.035295 13.943634 -0.54396325 -76.215012 -0.54063064 -76.234062 -22.297834 -0.18670525
8000000000 -23.03021 13.404826 -0.54369456 -76.768517 -0.54112262 -76.780571 -22.267895 -0.69774878
8010000000 -23.010122 12.897268 -0.54473031 -77.315353 -0.54122758 -77.330193 -22.255716 -1.2428552
8020000000 -22.97221 12.201688 -0.54513437 -77.868507 -0.54097927 -77.875031 -22.235306 -1.8082879
8030000000 -22.940294 11.609057 -0.54511768 -78.414169 -0.54126954 -78.427505 -22.209269 -2.387212
8040000000 -22.901045 10.983093 -0.54596943 -78.971451 -0.54159677 -78.985672 -22.190794 -2.8742867
8050000000 -22.852705 10.349604 -0.54642475 -79.52195 -0.54349297 -79.534882 -22.170761 -3.5325623
8060000000 -22.818005 9.796339 -0.54800701 -80.071808 -0.54377258 -80.079872 -22.138659 -4.073596
8070000000 -22.781412 9.1646271 -0.54870546 -80.614586 -0.54396915 -80.631783 -22.108829 -4.5559802
8080000000 -22.7393 8.5912867 -0.54943687 -81.164406 -0.54460967 -81.182243 -22.083 -5.1058531
8090000000 -22.697615 8.1163645 -0.54905027 -81.713608 -0.54621893 -81.730606 -22.058895 -5.5676575
8100000000 -22.676914 7.4643698 -0.54942483 -82.263885 -0.54579359 -82.276024 -22.03689 -6.045589
8110000000 -22.65892 7.0789356 -0.55028951 -82.815048 -0.54596621 -82.82225 -22.013441 -6.5354409
8120000000 -22.631821 6.5419054 -0.55026424 -83.35714 -0.54687095 -83.370003 -21.99822 -6.9114628
8130000000 -22.596474 6.0330272 -0.55174625 -83.90303 -0.546413 -83.918381 -21.991491 -7.3320603
8140000000 -22.587366 5.5866361 -0.55127919 -84.451965 -0.54738188 -84.467758 -21.976742 -7.8647161
8150000000 -22.576555 5.0272422 -0.55109996 -85.003113 -0.54681194 -85.01545 -21.972244 -8.2557478
8160000000 -22.544729 4.4598637 -0.55143172 -85.553711 -0.54783934 -85.564621 -21.96402 -8.7799988
8170000000 -22.537392 3.9343281 -0.55204225 -86.100456 -0.54893953 -86.114082 -21.940174 -9.2337322
8180000000 -22.505415 3.1845982 -0.55296826 -86.646454 -0.54789132 -86.663399 -21.945314 -9.7255325
8190000000 -22.496777 2.6002347 -0.55391628 -87.201912 -0.54877359 -87.213463 -21.946245 -10.292399
8200000000 -22.475914 2.1099353 -0.55353898 -87.751495 -0.54963839 -87.758339 -21.928278 -10.852647
8210000000 -22.455721 1.4687562 -0.55382949 -88.29747 -0.55051517 -88.308922 -21.926392 -11.411129
8220000000 -22.434784 0.94011164 -0.55443853 -88.850143 -0.55029625 -88.855995 -21.919468 -11.977343
8230000000 -22.399178 0.33622935 -0.55383861 -89.396751 -0.55040377 -89.408554 -21.904478 -12.476737
8240000000 -22.365259 -0.20830753 -0.55468327 -89.945175 -0.5511108 -89.957748 -21.894102 -12.917862
8250000000 -22.329851 -0.82441396 -0.55460411 -90.490791 -0.5514397 -90.500381 -21.859354 -13.354925
8260000000 -22.299419 -1.2845156 -0.55568367 -91.04351 -0.55309319 -91.053116 -21.825985 -13.824002
8270000000 -22.244667 -1.8617514 -0.5556134 -91.58419 -0.55341721 -91.600853 -21.816219 -14.270353
8280000000 -22.210466 -2.4511523 -0.55613828 -92.135986 -0.55409884 -92.142723 -21.801987 -14.626988
8290000000 -22.198374 -2.8981893 -0.5557549 -92.68763 -0.55391538 -92.693459 -21.791126 -15.083921
8300000000 -22.161888 -3.4260554 -0.55678529 -93.232674 -0.5545615 -93.240509 -21.777023 -15.569862
8310000000 -22.145943 -4.049757 -0.55646044 -93.77948 -0.55461383 -93.792 -21.75268 -16.094738
8320000000 -22.120115 -4.4856243 -0.55776387 -94.330887 -0.55517185 -94.344765 -21.746046 -16.563913
8330000000 -22.082521 -5.0718217 -0.55881208 -94.875656 -0.55533242 -94.890488 -21.73308 -17.103439
8340000000 -22.05298 -5.6571112 -0.55906969 -95.425766 -0.55626243 -95.438805 -21.720737 -17.628519
8350000000 -22.011805 -6.1158562 -0.55971104 -95.972824 -0.55725968 -95.979843 -21.695736 -18.15818
8360000000 -21.97893 -6.5992165 -0.56021488 -96.522423 -0.5575431 -96.529984 -21.694448 -18.688452
8370000000 -21.941643 -7.0326018 -0.56088638 -97.070152 -0.55752456 -97.079155 -21.69371 -19.233036
8380000000 -21.923014 -7.590384 -0.56150115 -97.61261 -0.55796874 -97.623833 -21.6705 -19.616671
8390000000 -21.909826 -7.9844418 -0.56210834 -98.160522 -0.55844766 -98.17868 -21.655607 -20.094852
8400000000 -21.902567 -8.4123993 -0.56244832 -98.714287 -0.5584023 -98.724022 -21.655647 -20.567259
8410000000 -21.899187 -8.8212576 -0.56186497 -99.260567 -0.55917603 -99.273987 -21.651794 -21.035128
8420000000 -21.881811 -9.3371058 -0.56226772 -99.810455 -0.55909532 -99.816971 -21.637714 -21.472607
8430000000 -21.862234 -9.9070578 -0.56253141 -100.35764 -0.55956233 -100.37262 -21.633234 -21.941349
8440000000 -21.848047 -10.412494 -0.56280166 -100.91085 -0.55981141 -100.91994 -21.611652 -22.427103
8450000000 -21.836454 -10.961967 -0.56410664 -101.46281 -0.56029969 -101.46887 -21.601721 -22.907391
8460000000 -21.793684 -11.557618 -0.56456035 -102.0107 -0.5615474 -102.02119 -21.591454 -23.393658
8470000000 -21.764696 -12.038631 -0.56513345 -102.5582 -0.56229663 -102.56381 -21.564678 -23.966692
8480000000 -21.754007 -12.631517 -0.56602776 -103.09924 -0.56186146 -103.11334 -21.556139 -24.438217
8490000000 -21.728889 -13.230974 -0.56532246 -103.64966 -0.56222767 -103.66422 -21.551455 -24.943365
8500000000 -21.716793 -13.684109 -0.56576413 -104.19538 -0.56333798 -104.21058 -21.54426 -25.417
8510000000 -21.695339 -14.166803 -0.56696415 -104.74152 -0.56299585 -104.75905 -21.539745 -25.893583
8520000000 -21.683235 -14.637897 -0.56709069 -105.2964 -0.56378865 -105.30717 -21.537643 -26.271902
8530000000 -21.677937 -15.115269 -0.56631619 -105.8399 -0.56329852 -105.85522 -21.528429 -26.631214
8540000000 -21.676277 -15.572165 -0.56730902 -106.39537 -0.56330264 -106.41257 -21.510357 -27.01358
8550000000 -21.649384 -16.087639 -0.56769454 -106.94633 -0.56377214 -106.95916 -21.498129 -27.392006
8560000000 -21.632246 -16.565746 -0.56760252 -107.49908 -0.56405187 -107.51051 -21.482637 -27.787912
8570000000 -21.618877 -17.152851 -0.56848997 -108.04578 -0.56488788 -108.06181 -21.464767 -28.271389
8580000000 -21.599922 -17.659904 -0.57027751 -108.60085 -0.5654003 -108.60942 -21.460829 -28.711199
8590000000 -21.587275 -18.291012 -0.57013702 -109.15797 -0.5649274 -109.16319 -21.459007 -29.285919
8600000000 -21.578548 -18.850044 -0.57056206 -109.70215 -0.56609529 -109.7076 -21.445417 -29.803844
8610000000 -21.558416 -19.381323 -0.57112539 -110.2484 -0.5663811 -110.25771 -21.443146 -30.429255
8620000000 -21.547403 -19.937916 -0.5707165 -110.79576 -0.56651616 -110.80735 -21.429611 -30.970745
8630000000 -21.528124 -20.482531 -0.57126057 -111.34131 -0.56673115 -111.35153 -21.416828 -31.508749
8640000000 -21.511555 -20.882593 -0.57154614 -111.89378 -0.56771725 -111.90195 -21.400967 -31.962185
8650000000 -21.480333 -21.342752 -0.572339 -112.44032 -0.5679881 -112.45113 -21.378557 -32.407665
8660000000 -21.460754 -21.784552 -0.57275218 -112.9932 -0.56868297 -112.99983 -21.362667 -32.883228
8670000000 -21.440964 -22.235693 -0.57286823 -113.54277 -0.56932628 -113.55132 -21.340816 -33.315495
8680000000 -21.427162 -22.639502 -0.57281214 -114.08942 -0.57041126 -114.10256 -21.315966 -33.735577
8690000000 -21.43117 -23.148077 -0.57458729 -114.64141 -0.56981087 -114.65327 -21.294579 -34.153515
8700000000 -21.418196 -23.675184 -0.5737018 -115.19479 -0.57066542 -115.20019 -21.284582 -34.663372
8710000000 -21.424721 -24.194962 -0.57457042 -115.74055 -0.57188064 -115.75422 -21.276159 -35.097363
8720000000 -21.391766 -24.774677 -0.57483697 -116.29149 -0.5723384 -116.29626 -21.275106 -35.559391
8730000000 -21.397438 -25.399824 -0.57543004 -116.83827 -0.57204545 -116.85053 -21.251709 -36.102413
8740000000 -21.374416 -26.047037 -0.57632446 -117.38461 -0.57226336 -117.3988 -21.239944 -36.573322
8750000000 -21.361456 -26.608126 -0.57626027 -117.93449 -0.57365572 -117.94682 -21.243273 -37.068733
8760000000 -21.339426 -27.174412 -0.57727903 -118.48507 -0.57388085 -118.4928 -21.237659 -37.518353
8770000000 -21.317162 -27.656397 -0.57792389 -119.03068 -0.57398397 -119.04211 -21.214518 -38.03936
8780000000 -21.302498 -28.108185 -0.57850975 -119.57936 -0.57574868 -119.59256 -21.195423 -38.493927
8790000000 -21.286423 -28.612478 -0.57838166 -120.12452 -0.57489461 -120.13377 -21.178438 -39.071865
8800000000 -21.274572 -29.033508 -0.57911694 -120.67284 -0.5762136 -120.68321 -21.172291 -39.461647
8810000000 -21.267651 -29.45961 -0.57843578 -121.21986 -0.57521403 -121.23179 -21.168007 -40.049095
8820000000 -21.270138 -29.849798 -0.57941926 -121.77129 -0.57617664 -121.77729 -21.150499 -40.472214
8830000000 -21.281109 -30.323277 -0.58001059 -122.32011 -0.57681161 -122.32986 -21.136427 -40.942848
8840000000 -21.283413 -30.852026 -0.58048725 -122.87093 -0.57754278 -122.87916 -21.121735 -41.431164
8850000000 -21.303608 -31.471033 -0.58118349 -123.41901 -0.57831514 -123.42722 -21.11076 -41.908287
8860000000 -21.306608 -32.101963 -0.58088344 -123.96951 -0.57818055 -123.97293 -21.093683 -42.360794
8870000000 -21.310534 -32.658745 -0.58179164 -124.51957 -0.57848459 -124.52567 -21.094625 -42.916409
8880000000 -21.299147 -33.243366 -0.58246148 -125.06912 -0.57943195 -125.07518 -21.103851 -43.357815
8890000000 -21.297766 -33.857189 -0.58298367 -125.6146 -0.57983249 -125.62656 -21.106062 -43.812199
8900000000 -21.281305 -34.442284 -0.58387578 -126.16493 -0.58004874 -126.17422 -21.093033 -44.302071
8910000000 -21.274307 -34.983902 -0.58425063 -126.7133 -0.5807485 -126.72338 -21.102163 -44.802418
8920000000 -21.266792 -35.521523 -0.58391929 -127.26036 -0.58113551 -127.27422 -21.091139 -45.363914
8930000000 -21.269419 -36.056007 -0.58432853 -127.81062 -0.58118641 -127.82092 -21.077765 -45.85714
8940000000 -21.252924 -36.565792 -0.58456427 -128.3602 -0.58111751 -128.36751 -21.051538 -46.392948
8950000000 -21.240301 -37.012188 -0.58451629 -128.90587 -0.58215868 -128.922 -21.017826 -46.908974
8960000000 -21.226511 -37.465336 -0.58541965 -129.45679 -0.58245379 -129.47034 -21.000242 -47.428177
8970000000 -21.224949 -37.91898 -0.58642751 -130.01295 -0.58282912 -130.02188 -20.979597 -47.960697
8980000000 -21.203758 -38.474911 -0.5870533 -130.56171 -0.58334428 -130.57254 -20.944887 -48.491505
8990000000 -21.179955 -39.095627 -0.58780068 -131.10645 -0.58342838 -131.12234 -20.917114 -48.938858
9000000000 -21.174791 -39.610119 -0.58902639 -131.662 -0.5851264 -131.66888 -20.897154 -49.334206
9010000000 -21.178223 -40.369293 -0.58828264 -132.20897 -0.58483171 -132.22066 -20.876253 -49.798256
9020000000 -21.167332 -41.019161 -0.58920097 -132.75603 -0.58518565 -132.76826 -20.852812 -50.203167
9030000000 -21.175837 -41.673466 -0.58866948 -133.30724 -0.58659399 -133.31972 -20.847651 -50.632057
9040000000 -21.156513 -42.365528 -0.58891696 -133.84943 -0.58612472 -133.8685 -20.846014 -51.091713
9050000000 -21.149544 -42.901093 -0.59032178 -134.40767 -0.58633089 -134.41971 -20.84243 -51.592529
9060000000 -21.14576 -43.410759 -0.58936912 -134.9577 -0.58641565 -134.97404 -20.847059 -52.047527
9070000000 -21.122061 -43.931076 -0.58923364 -135.50636 -0.58701271 -135.51945 -20.833754 -52.451298
9080000000 -21.114445 -44.413517 -0.59060234 -136.0596 -0.58781135 -136.07616 -20.81893 -52.965057
9090000000 -21.097654 -44.845249 -0.59174311 -136.61124 -0.58784336 -136.62689 -20.795317 -53.536636
9100000000 -21.091246 -45.329876 -0.59223199 -137.16702 -0.58964217 -137.18102 -20.786325 -54.13031
9110000000 -21.073574 -45.802727 -0.59268063 -137.71904 -0.58919507 -137.73186 -20.778082 -54.661835
9120000000 -21.081726 -46.435574 -0.59437454 -138.27007 -0.5898847 -138.28275 -20.757351 -55.234165
9130000000 -21.074799 -47.014854 -0.59361714 -138.81563 -0.59101164 -138.82863 -20.720026 -55.793743
9140000000 -21.069715 -47.695217 -0.59345686 -139.36588 -0.59031707 -139.37218 -20.705133 -56.3484
9150000000 -21.066212 -48.300503 -0.59490412 -139.91219 -0.59102648 -139.92763 -20.689611 -56.842102
9160000000 -21.055931 -48.913261 -0.59491187 -140.46313 -0.5917778 -140.47542 -20.68475 -57.385418
9170000000 -21.045307 -49.512169 -0.59560835 -141.01476 -0.59248298 -141.02817 -20.673309 -57.870384
9180000000 -21.03352 -50.037392 -0.59592307 -141.56715 -0.59327167 -141.57581 -20.664093 -58.28199
9190000000 -21.014305 -50.563995 -0.59645671 -142.11588 -0.59301591 -142.12839 -20.651066 -58.780334
9200000000 -21.004807 -51.180946 -0.5966512 -142.66637 -0.59407836 -142.67387 -20.646482 -59.215561
9210000000 -21.002037 -51.673748 -0.5970453 -143.21211 -0.59457821 -143.22774 -20.640518 -59.700104
9220000000 -21.006187 -52.236511 -0.59730935 -143.76369 -0.59493977 -143.78186 -20.63118 -60.271126
9230000000 -21.004436 -52.814564 -0.59736341 -144.3192 -0.59404391 -144.33209 -20.624701 -60.793041
9240000000 -20.998802 -53.371483 -0.59780276 -144.86978 -0.59518558 -144.88068 -20.62196 -61.347878
9250000000 -20.992985 -53.90947 -0.59885567 -145.41724 -0.59511077 -145.43275 -20.608084 -61.97097
9260000000 -21.002968 -54.433483 -0.60012609 -145.96767 -0.59588563 -145.98253 -20.590279 -62.463821
9270000000 -21.001534 -55.01025 -0.59995788 -146.51662 -0.59689385 -146.52892 -20.586884 -63.0326
9280000000 -20.990078 -55.478714 -0.60120571 -147.062 -0.59803772 -147.0795 -20.568991 -63.539665
9290000000 -20.975983 -56.006996 -0.60188627 -147.61212 -0.59820145 -147.62856 -20.553612 -63.991116
9300000000 -20.982164 -56.641594 -0.60287923 -148.16109 -0.59815449 -148.17647 -20.540722 -64.552635
9310000000 -20.960871 -57.177113 -0.60315019 -148.71042 -0.59918553 -148.7233 -20.536064 -65.024368
9320000000 -20.951235 -57.725071 -0.60223329 -149.25652 -0.59951061 -149.27237 -20.519051 -65.572266
9330000000 -20.95026 -58.220772 -0.60251939 -149.8055 -0.60015345 -149.81781 -20.520897 -66.15686
9340000000 -20.9403 -58.829212 -0.60278255 -150.35219 -0.59953409 -150.36453 -20.518988 -66.74604
9350000000 -20.938274 -59.322968 -0.60278046 -150.90221 -0.59956795 -150.92117 -20.509462 -67.306961
9360000000 -20.930704 -59.788322 -0.60284591 -151.45447 -0.60042244 -151.4673 -20.509636 -67.893669
9370000000 -20.929983 -60.240891 -0.60427964 -152.00812 -0.60052735 -152.01869 -20.499767 -68.432663
9380000000 -20.928164 -60.796238 -0.60431445 -152.56233 -0.60127205 -152.57158 -20.475985 -68.978188
9390000000 -20.916502 -61.341812 -0.60549271 -153.11205 -0.60147244 -153.12337 -20.452068 -69.491035
9400000000 -20.905567 -61.991535 -0.60561442 -153.66167 -0.60267282 -153.67317 -20.438728 -69.972458
9410000000 -20.895184 -62.600548 -0.60651416 -154.21762 -0.60353297 -154.22325 -20.42313 -70.502953
9420000000 -20.887318 -63.21011 -0.60714018 -154.76071 -0.60418624 -154.77097 -20.411308 -70.914841
9430000000 -20.880325 -63.82505 -0.60731047 -155.30324 -0.60512376 -155.32251 -20.391722 -71.434708
9440000000 -20.855238 -64.432228 -0.60876596 -155.8524 -0.60428828 -155.86798 -20.370045 -72.087173
9450000000 -20.846764 -64.989243 -0.60776955 -156.40184 -0.60520887 -156.41556 -20.364017 -72.626556
9460000000 -20.82913 -65.617241 -0.60800481 -156.94853 -0.60558707 -156.96257 -20.363235 -73.195419
9470000000 -20.815886 -66.132462 -0.60849673 -157.49806 -0.60512495 -157.51379 -20.350225 -73.726395
9480000000 -20.811693 -66.547287 -0.60958588 -158.05348 -0.60557193 -158.05891 -20.333956 -74.316055
9490000000 -20.81012 -67.056755 -0.60970622 -158.60654 -0.60719287 -158.6138 -20.330523 -74.811279
9500000000 -20.809248 -67.49157 -0.61084247 -159.15982 -0.60730749 -159.16405 -20.332373 -75.347404
9510000000 -20.810226 -68.012138 -0.61085826 -159.7059 -0.60746765 -159.72137 -20.327826 -75.874672
9520000000 -20.822956 -68.544128 -0.61234981 -160.25902 -0.60839814 -160.27364 -20.318518 -76.395996
9530000000 -20.833929 -69.155663 -0.61259151 -160.80571 -0.6094057 -160.82596 -20.310858 -76.964821
9540000000 -20.836617 -69.805016 -0.61245948 -161.35728 -0.61060768 -161.37399 -20.296812 -77.529907
9550000000 -20.83886 -70.456299 -0.61329055 -161.90884 -0.61091965 -161.92015 -20.295595 -77.970367
9560000000 -20.836388 -71.21505 -0.61327058 -162.45569 -0.61041731 -162.46576 -20.290415 -78.626701
9570000000 -20.831472 -71.813293 -0.61388028 -163.00418 -0.61112493 -163.01448 -20.280449 -79.133331
9580000000 -20.821316 -72.400185 -0.61368084 -163.55971 -0.61088449 -163.56894 -20.278645 -79.64978
9590000000 -20.804783 -72.979553 -0.61466599 -164.11185 -0.61130941 -164.12125 -20.283531 -80.259384
9600000000 -20.768602 -73.551704 -0.61395931 -164.66368 -0.61223143 -164.67619 -20.270052 -80.834969
9610000000 -20.75769 -73.99279 -0.61507487 -165.22093 -0.61200196 -165.22836 -20.252892 -81.338905
9620000000 -20.733717 -74.534462 -0.61550945 -165.7742 -0.61229974 -165.77719 -20.246555 -81.988098
9630000000 -20.721615 -75.030609 -0.61629188 -166.31842 -0.61286485 -166.33029 -20.235746 -82.603676
9640000000 -20.719877 -75.470566 -0.61616927 -166.87051 -0.6137172 -166.88673 -20.234268 -83.144707
9650000000 -20.712801 -76.078384 -0.61763877 -167.41893 -0.61469406 -167.43777 -20.214369 -83.716843
9660000000 -20.71394 -76.650459 -0.61726844 -167.97104 -0.61535257 -167.98262 -20.203392 -84.290062
9670000000 -20.711502 -77.227821 -0.61755431 -168.51749 -0.61596227 -168.53172 -20.195795 -84.84433
9680000000 -20.70005 -77.816559 -0.61855143 -169.06482 -0.61653084 -169.08189 -20.182911 -85.411308
9690000000 -20.702375 -78.379013 -0.6189099 -169.61761 -0.61709982 -169.63072 -20.175621 -85.980728
9700000000 -20.693031 -79.00148 -0.61934817 -170.16975 -0.61695212 -170.18092 -20.174473 -86.499687
9710000000 -20.692488 -79.499565 -0.61950427 -170.71739 -0.61739016 -170.72919 -20.182016 -87.076996
9720000000 -20.674999 -80.050552 -0.62056154 -171.2697 -0.61707538 -171.28477 -20.171215 -87.618477
9730000000 -20.673258 -80.666397 -0.62003124 -171.81892 -0.6178906 -171.83794 -20.164627 -88.228256
9740000000 -20.654577 -81.184242 -0.62077451 -172.36938 -0.61749315 -172.38132 -20.169889 -88.765572
9750000000 -20.64855 -81.833466 -0.62063384 -172.91624 -0.61789119 -172.93336 -20.175655 -89.278397
9760000000 -20.634214 -82.376274 -0.62115884 -173.47026 -0.61804909 -173.48224 -20.178795 -89.901627
9770000000 -20.652748 -82.918526 -0.62100357 -174.02202 -0.61766022 -174.03745 -20.184423 -90.406883
9780000000 -20.646118 -83.56826 -0.62187064 -174.56912 -0.617993 -174.5921 -20.172066 -91.026459
9790000000 -20.656424 -83.976067 -0.62185806 -175.12074 -0.61974877 -175.14302 -20.17691 -91.703049
9800000000 -20.642727 -84.514763 -0.62286007 -175.66884 -0.61965233 -175.68169 -20.169109 -92.299461
9810000000 -20.653048 -85.09256 -0.62373495 -176.21828 -0.62023848 -176.23671 -20.17325 -92.864479
9820000000 -20.634481 -85.539688 -0.62387156 -176.76923 -0.62081301 -176.78371 -20.177921 -93.427086
9830000000 -20.624743 -86.22316 -0.62410319 -177.31857 -0.62127411 -177.33061 -20.158417 -94.005196
9840000000 -20.608921 -86.831299 -0.62364233 -177.86514 -0.62072641 -177.87636 -20.15744 -94.528404
9850000000 -20.606422 -87.416527 -0.62435031 -178.41545 -0.62183028 -178.42888 -20.165373 -95.055725
9860000000 -20.589216 -88.065742 -0.62475562 -178.96458 -0.62143809 -178.98163 -20.151304 -95.543434
9870000000 -20.581566 -88.712578 -0.62453502 -179.51868 -0.6212756 -179.52371 -20.166758 -96.05938
9880000000 -20.578424 -89.317749 -0.62474608 179.92831 -0.62236559 179.92567 -20.173409 -96.602432
9890000000 -20.579252 -89.905983 -0.62547338 179.38167 -0.62161344 179.36731 -20.186518 -97.078453
9900000000 -20.579376 -90.545624 -0.62617838 178.82904 -0.62267989 178.81422 -20.193027 -97.5411
9910000000 -20.582523 -91.092751 -0.62629169 178.2746 -0.62303066 178.26532 -20.195614 -97.930031
9920000000 -20.579222 -91.67543 -0.62725407 177.71846 -0.62383837 177.71283 -20.196505 -98.546288
9930000000 -20.578529 -92.249702 -0.6280039 177.16454 -0.62408257 177.1617 -20.204733 -99.067924
9940000000 -20.558418 -92.841522 -0.62768626 176.61737 -0.62548202 176.61208 -20.20801 -99.632736
9950000000 -20.554768 -93.401077 -0.62909317 176.06935 -0.62566918 176.05513 -20.216644 -100.24176
9960000000 -20.541555 -93.994812 -0.62881881 175.51793 -0.62618792 175.50877 -20.210068 -100.91025
9970000000 -20.515942 -94.60173 -0.62878144 174.97879 -0.625871 174.95711 -20.204607 -101.53263
9980000000 -20.491508 -95.079887 -0.62917966 174.42424 -0.62659252 174.41409 -20.190922 -102.22151
9990000000 -20.468378 -95.573677 -0.62912101 173.8759 -0.62653303 173.86449 -20.197681 -102.76589
10000000000 -20.446096 -96.183838 -0.62970722 173.32149 -0.62661767 173.30951 -20.187372 -103.38686
10010000000 -20.418619 -96.649338 -0.62945223 172.76559 -0.62734288 172.75597 -20.183327 -103.88954
10020000000 -20.408167 -97.072266 -0.63056344 172.20975 -0.62726927 172.20067 -20.177237 -104.39738
10030000000 -20.399027 -97.543007 -0.63119626 171.65694 -0.62731981 171.65178 -20.172197 -104.93765
10040000000 -20.394609 -98.123604 -0.63115734 171.10579 -0.62750047 171.09741 -20.182932 -105.43337
10050000000 -20.397963 -98.641296 -0.63236809 170.55789 -0.62799704 170.54601 -20.184502 -105.97732
10060000000 -20.401447 -99.158836 -0.63231474 170.00328 -0.62928945 169.99579 -20.205753 -106.5061
10070000000 -20.396189 -99.70089 -0.63127255 169.45728 -0.6290465 169.44757 -20.203428 -107.13549
10080000000 -20.411739 -100.29222 -0.63245672 168.90788 -0.62957042 168.89195 -20.218866 -107.76308
10090000000 -20.403767 -100.83997 -0.63189018 168.35634 -0.62944955 168.34669 -20.234354 -108.29994
10100000000 -20.392056 -101.35255 -0.6318872 167.80257 -0.62913507 167.78867 -20.237419 -108.85657
10110000000 -20.391056 -101.90706 -0.63225669 167.25027 -0.62911141 167.23836 -20.25116 -109.39848
10120000000 -20.381157 -102.38283 -0.63237047 166.69679 -0.63007647 166.68802 -20.256573 -109.90322
10130000000 -20.355232 -102.93787 -0.63251865 166.13733 -0.63022584 166.13057 -20.269978 -110.43686
10140000000 -20.348736 -103.4445 -0.63400596 165.58737 -0.63067687 165.5751 -20.268045 -110.9577
10150000000 -20.332596 -103.94993 -0.63339615 165.03146 -0.6318441 165.02699 -20.263979 -111.50883
10160000000 -20.316202 -104.52745 -0.63341683 164.47797 -0.63217014 164.47119 -20.247635 -112.03275
10170000000 -20.296986 -105.14471 -0.63475132 163.92993 -0.63274568 163.92285 -20.244339 -112.61162
10180000000 -20.288591 -105.64162 -0.63482952 163.37796 -0.6325196 163.37271 -20.231091 -113.16761
10190000000 -20.287891 -106.13432 -0.63521659 162.82849 -0.6330182 162.82014 -20.242474 -113.63508
10200000000 -20.285717 -106.80323 -0.63629425 162.27441 -0.63272649 162.26453 -20.233959 -114.12337
10210000000 -20.286383 -107.33525 -0.63548869 161.72392 -0.63420069 161.71785 -20.229153 -114.55886
10220000000 -20.274082 -107.93209 -0.63691014 161.17015 -0.63441849 161.15936 -20.239052 -115.03603
10230000000 -20.287552 -108.43347 -0.63742846 160.61914 -0.63500839 160.60434 -20.250351 -115.44405
10240000000 -20.272486 -108.99507 -0.63743716 160.06996 -0.63487774 160.05441 -20.263762 -115.83526
10250000000 -20.27178 -109.55589 -0.63772047 159.51074 -0.63453323 159.50609 -20.274612 -116.25783
10260000000 -20.272823 -110.08054 -0.63735288 158.95834 -0.6350767 158.95148 -20.279997 -116.66097
10270000000 -20.257097 -110.72746 -0.63823885 158.40494 -0.63479143 158.39194 -20.280048 -117.1965
10280000000 -20.250586 -111.27808 -0.63889581 157.84639 -0.6353904 157.84424 -20.29406 -117.69305
10290000000 -20.236645 -111.95458 -0.6386553 157.29892 -0.63548356 157.29071 -20.295328 -118.12823
10300000000 -20.22257 -112.46207 -0.63948542 156.75078 -0.63570023 156.73662 -20.311363 -118.59498
10310000000 -20.223244 -112.90278 -0.63951784 156.19786 -0.63635927 156.18666 -20.317917 -119.20642
10320000000 -20.20587 -113.37156 -0.64026952 155.64302 -0.6373511 155.63533 -20.327379 -119.78749
10330000000 -20.203268 -113.79495 -0.64100033 155.08742 -0.6366173 155.0856 -20.323566 -120.30799
10340000000 -20.201227 -114.20242 -0.64168358 154.53625 -0.63844812 154.52817 -20.334259 -120.96175
10350000000 -20.196903 -114.62204 -0.64227593 153.9864 -0.63754028 153.96985 -20.327534 -121.56168
10360000000 -20.192427 -115.03894 -0.64228648 153.43375 -0.63838398 153.42609 -20.332874 -122.11147
10370000000 -20.19191 -115.45438 -0.6418795 152.88251 -0.63826162 152.87549 -20.322117 -122.7477
10380000000 -20.179312 -115.98282 -0.64217329 152.32747 -0.63906705 152.32362 -20.329327 -123.30191
10390000000 -20.163855 -116.48728 -0.64162207 151.77527 -0.639274 151.7691 -20.309235 -123.83824
10400000000 -20.160868 -117.02729 -0.64162296 151.22827 -0.63867486 151.21785 -20.312975 -124.39344
10410000000 -20.153988 -117.49448 -0.64206284 150.67738 -0.63946354 150.66469 -20.31142 -124.92455
10420000000 -20.134323 -117.98211 -0.64237916 150.11787 -0.63909465 150.11273 -20.311327 -125.3923
10430000000 -20.123146 -118.4669 -0.64237499 149.56311 -0.64021552 149.55042 -20.322855 -125.91582
10440000000 -20.120977 -118.88213 -0.64399624 149.01314 -0.64088994 148.99568 -20.316307 -126.3816
10450000000 -20.118534 -119.33318 -0.64421391 148.45703 -0.64140028 148.44089 -20.300167 -126.96472
10460000000 -20.118845 -119.76259 -0.64447576 147.90227 -0.64114344 147.88959 -20.300751 -127.54463
10470000000 -20.116922 -120.17871 -0.64494514 147.34926 -0.64128268 147.33502 -20.299934 -128.06815
10480000000 -20.115627 -120.64334 -0.6452983 146.79948 -0.64314699 146.7859 -20.308243 -128.64935
10490000000 -20.111814 -121.14882 -0.64565992 146.24866 -0.6425938 146.24149 -20.308508 -129.12268
10500000000 -20.118809 -121.61313 -0.64617443 145.69629 -0.64208597 145.68535 -20.301556 -129.70694
10510000000 -20.130556 -122.07333 -0.64580768 145.15016 -0.64376301 145.1347 -20.317383 -130.23332
10520000000 -20.138018 -122.57513 -0.64616239 144.59727 -0.64233625 144.57458 -20.319332 -130.67529
10530000000 -20.159492 -123.05161 -0.64614677 144.0406 -0.64284563 144.03003 -20.315224 -131.21533
10540000000 -20.177328 -123.49546 -0.646209 143.48718 -0.64264029 143.47433 -20.331335 -131.55519
10550000000 -20.203884 -124.04528 -0.64700538 142.93155 -0.64360869 142.92078 -20.342537 -131.94991
10560000000 -20.220926 -124.56428 -0.64735448 142.3799 -0.64341897 142.36481 -20.332806 -132.4113
10570000000 -20.242275 -125.06717 -0.64850754 141.82014 -0.64460397 141.80875 -20.330587 -132.89661
10580000000 -20.246948 -125.64401 -0.64785904 141.2654 -0.64454842 141.25691 -20.344784 -133.44368
10590000000 -20.266727 -126.36034 -0.64890343 140.71481 -0.64491391 140.7085 -20.326872 -133.87871
10600000000 -20.277016 -126.94284 -0.64918715 140.16536 -0.64656132 140.16388 -20.33186 -134.43484
10610000000 -20.290567 -127.50491 -0.64876693 139.61142 -0.64656436 139.6073 -20.327396 -134.83345
10620000000 -20.299833 -128.16148 -0.64955872 139.05901 -0.64635408 139.0507 -20.331242 -135.34818
10630000000 -20.307129 -128.8181 -0.64939851 138.5033 -0.64740288 138.50081 -20.332468 -135.88229
10640000000 -20.313723 -129.22343 -0.64943004 137.94759 -0.64701921 137.94194 -20.351221 -136.3936
10650000000 -20.315916 -129.81517 -0.65102959 137.39551 -0.64762044 137.38615 -20.355413 -136.83136
10660000000 -20.31143 -130.27658 -0.65127379 136.8445 -0.64831883 136.83711 -20.372044 -137.38538
10670000000 -20.307159 -130.7709 -0.65202451 136.29123 -0.64754802 136.27742 -20.373726 -137.86549
10680000000 -20.305885 -131.27853 -0.65188736 135.73663 -0.64836603 135.7204 -20.367794 -138.48216
10690000000 -20.305708 -131.62523 -0.65237737 135.18253 -0.64843094 135.16866 -20.360165 -139.04485
10700000000 -20.309643 -132.14984 -0.6530022 134.62746 -0.64892805 134.61731 -20.343313 -139.64107
10710000000 -20.316891 -132.55759 -0.65360665 134.07629 -0.64886194 134.05807 -20.343325 -140.31078
10720000000 -20.335222 -133.01837 -0.65464431 133.52261 -0.64944267 133.51028 -20.357746 -140.87326
10730000000 -20.343069 -133.5762 -0.65428072 132.96625 -0.65076286 132.95323 -20.353132 -141.41856
10740000000 -20.369486 -134.02328 -0.65557408 132.41974 -0.65108252 132.40442 -20.348505 -142.12004
10750000000 -20.373167 -134.62448 -0.65612745 131.8578 -0.65165395 131.85167 -20.355696 -142.70921
10760000000 -20.388044 -135.14218 -0.6565035 131.31227 -0.65214723 131.29504 -20.350994 -143.28015
10770000000 -20.395668 -135.70427 -0.65670377 130.75737 -0.65222877 130.74681 -20.352478 -143.81845
10780000000 -20.391987 -136.27805 -0.65671641 130.20796 -0.65284663 130.19643 -20.341078 -144.32709
10790000000 -20.397837 -136.84683 -0.65671641 129.65282 -0.65298653 129.64229 -20.333691 -144.8152
10800000000 -20.396181 -137.32549 -0.65744996 129.10284 -0.65307319 129.08673 -20.334454 -145.41022
10810000000 -20.386122 -137.69405 -0.6572184 128.54979 -0.65326995 128.53194 -20.33621 -145.97034
10820000000 -20.391285 -138.18132 -0.6573813 127.99246 -0.65400475 127.9807 -20.338385 -146.52602
10830000000 -20.403372 -138.5681 -0.6587503 127.43723 -0.65413839 127.42367 -20.336653 -147.12527
10840000000 -20.423567 -138.92706 -0.6589151 126.88383 -0.65386784 126.86562 -20.337767 -147.69557
10850000000 -20.439423 -139.43886 -0.65901816 126.33138 -0.65492874 126.31448 -20.348221 -148.29073
10860000000 -20.463921 -139.82458 -0.65955567 125.77404 -0.65569359 125.76438 -20.349888 -148.84647
10870000000 -20.494083 -140.33656 -0.65897715 125.22121 -0.65554041 125.20885 -20.350683 -149.46428
10880000000 -20.524 -140.95439 -0.65983319 124.67356 -0.65591067 124.65747 -20.350632 -149.98282
10890000000 -20.559376 -141.49321 -0.65976417 124.11723 -0.65676999 124.10844 -20.345036 -150.59775
10900000000 -20.581112 -142.06679 -0.66044641 123.57018 -0.6571753 123.55177 -20.343058 -151.2209
10910000000 -20.600538 -142.72391 -0.66088253 123.01536 -0.65700847 123.0028 -20.345661 -151.73788
10920000000 -20.603094 -143.36806 -0.66071439 122.45897 -0.65764332 122.44905 -20.359276 -152.21326
10930000000 -20.622488 -144.04236 -0.66101307 121.90739 -0.65767223 121.89735 -20.356878 -152.76813
10940000000 -20.62878 -144.64052 -0.66090608 121.35189 -0.65703499 121.33516 -20.364992 -153.25319
10950000000 -20.644455 -145.19658 -0.66133738 120.79536 -0.65727317 120.78655 -20.374212 -153.76271
10960000000 -20.661301 -145.83649 -0.66164243 120.24097 -0.65723556 120.23244 -20.392445 -154.24306
10970000000 -20.669649 -146.36879 -0.66165394 119.68958 -0.65704763 119.6757 -20.398945 -154.71329
10980000000 -20.68791 -146.98183 -0.66319674 119.13297 -0.65840358 119.12508 -20.410238 -155.25484
10990000000 -20.715418 -147.49919 -0.66299987 118.58212 -0.65908957 118.5731 -20.420788 -155.81871
11000000000 -20.729548 -148.11896 -0.66362321 118.0302 -0.65934384 118.01614 -20.433041 -156.37143
11010000000 -20.757891 -148.77696 -0.66421771 117.48095 -0.65969938 117.46427 -20.454758 -156.9464
11020000000 -20.778011 -149.33342 -0.66412205 116.92359 -0.65999138 116.91258 -20.467503 -157.48212
11030000000 -20.807276 -149.96216 -0.66447228 116.36746 -0.65987599 116.35822 -20.47998 -158.03236
11040000000 -20.823799 -150.52505 -0.66400295 115.81026 -0.65975124 115.80523 -20.502903 -158.63008
11050000000 -20.834972 -151.15894 -0.66304147 115.25869 -0.66106009 115.24847 -20.52915 -159.30368
11060000000 -20.862812 -151.813 -0.66468585 114.70335 -0.66047746 114.69347 -20.544453 -159.91449
11070000000 -20.885141 -152.31801 -0.66390127 114.15289 -0.65964693 114.14068 -20.561989 -160.51712
11080000000 -20.892876 -152.87358 -0.66360241 113.59516 -0.66105825 113.58539 -20.568699 -161.14243
11090000000 -20.905678 -153.5103 -0.66452718 113.04351 -0.66190654 113.03019 -20.574026 -161.76312
11100000000 -20.914394 -154.05539 -0.66634142 112.48215 -0.66131175 112.47888 -20.581291 -162.49663
11110000000 -20.922735 -154.72136 -0.66596574 111.93105 -0.66190171 111.92383 -20.595495 -163.10544
11120000000 -20.934422 -155.25113 -0.66577232 111.37584 -0.66240072 111.36801 -20.616323 -163.78006
11130000000 -20.950125 -155.82983 -0.66626143 110.82616 -0.66264129 110.8164 -20.623951 -164.40723
11140000000 -20.952463 -156.47063 -0.66702867 110.27715 -0.66259581 110.25502 -20.627186 -165.06226
11150000000 -20.958708 -157.10713 -0.66710865 109.71793 -0.66213387 109.70818 -20.644455 -165.6467
11160000000 -20.973133 -157.72665 -0.6676085 109.16164 -0.66347182 109.14944 -20.644642 -166.20299
11170000000 -20.977358 -158.29738 -0.66699362 108.60828 -0.66271275 108.59915 -20.64209 -166.71907
11180000000 -20.975674 -158.84445 -0.66687655 108.05335 -0.66262895 108.04498 -20.649601 -167.26944
11190000000 -20.97967 -159.39346 -0.66691244 107.50049 -0.66377884 107.49031 -20.655609 -167.86324
11200000000 -20.985819 -159.96538 -0.66677511 106.9436 -0.6633153 106.93308 -20.660078 -168.4325
11210000000 -20.994114 -160.51305 -0.6670869 106.39339 -0.66348147 106.38346 -20.662148 -168.9783
11220000000 -20.996582 -161.11275 -0.66688138 105.83736 -0.66374928 105.82386 -20.676552 -169.49352
11230000000 -21.013557 -161.63676 -0.66717958 105.2811 -0.66317475 105.26852 -20.681002 -170.07411
11240000000 -21.022621 -162.14938 -0.66793638 104.7253 -0.66351646 104.71645 -20.697918 -170.65222
11250000000 -21.042936 -162.83983 -0.66891795 104.17411 -0.66382074 104.16247 -20.721701 -171.20004
11260000000 -21.071655 -163.41978 -0.66844088 103.62025 -0.66464001 103.60819 -20.739531 -171.66368
11270000000 -21.088108 -164.08862 -0.66884911 103.06839 -0.66468191 103.05446 -20.756178 -172.15733
11280000000 -21.117447 -164.77956 -0.66928667 102.51569 -0.66434258 102.50229 -20.771503 -172.62442
11290000000 -21.126877 -165.39735 -0.66982424 101.95928 -0.66478509 101.94892 -20.801191 -173.13431
11300000000 -21.141308 -166.12881 -0.66893578 101.4072 -0.66516858 101.39816 -20.83357 -173.52892
11310000000 -21.145947 -166.86171 -0.6692338 100.85672 -0.66459775 100.84631 -20.853413 -174.08475
11320000000 -21.162714 -167.43561 -0.66930324 100.3022 -0.66498119 100.29259 -20.868469 -174.58279
11330000000 -21.163994 -168.02049 -0.66835815 99.753601 -0.66404939 99.737526 -20.908672 -175.07193
11340000000 -21.178921 -168.65758 -0.66943496 99.197723 -0.66411817 99.178581 -20.922482 -175.60715
11350000000 -21.193684 -169.29097 -0.66866457 98.64119 -0.66484994 98.624397 -20.943182 -176.21904
11360000000 -21.214516 -169.74794 -0.668908 98.083382 -0.66508949 98.072159 -20.959749 -176.90102
11370000000 -21.217667 -170.30276 -0.66875398 97.527267 -0.66587853 97.515839 -20.993975 -177.52299
11380000000 -21.227137 -170.84163 -0.67028725 96.966904 -0.66522586 96.961929 -21.013021 -178.10196
11390000000 -21.237669 -171.29846 -0.67011297 96.412796 -0.66633481 96.400246 -21.046104 -178.68605
11400000000 -21.250042 -171.8188 -0.6705392 95.85804 -0.66657686 95.841919 -21.056524 -179.30258
11410000000 -21.265484 -172.39558 -0.67125094 95.301216 -0.66730607 95.295662 -21.084553 -179.92682
11420000000 -21.272043 -172.8371 -0.67124522 94.749557 -0.66655236 94.735878 -21.090416 179.48369
11430000000 -21.281221 -173.43407 -0.67155004 94.195282 -0.66743708 94.183006 -21.118807 178.99147
11440000000 -21.297842 -173.97032 -0.67138028 93.642517 -0.6673981 93.630165 -21.138687 178.4547
11450000000 -21.295067 -174.52988 -0.67179358 93.088127 -0.66831315 93.073654 -21.163898 177.92007
11460000000 -21.302071 -175.06883 -0.67187881 92.534988 -0.66814923 92.520821 -21.184507 177.29494
11470000000 -21.307066 -175.60127 -0.67181295 91.977913 -0.66799313 91.967628 -21.21059 176.73492
11480000000 -21.316635 -176.07339 -0.6713993 91.420258 -0.66869116 91.410927 -21.232979 176.1118
11490000000 -21.347084 -176.5981 -0.67176759 90.86647 -0.66821593 90.849388 -21.260954 175.48164
11500000000 -21.359451 -177.15584 -0.67212689 90.310806 -0.66872287 90.293709 -21.290541 174.92513
11510000000 -21.377859 -177.67267 -0.6735211 89.748901 -0.66912627 89.741844 -21.303452 174.40739
11520000000 -21.397987 -178.09499 -0.67421973 89.195877 -0.66896683 89.182945 -21.325148 173.84314
11530000000 -21.410179 -178.57655 -0.67333549 88.636642 -0.66939026 88.627464 -21.333992 173.26836
11540000000 -21.431992 -179.17004 -0.67371035 88.087364 -0.67071861 88.06723 -21.363617 172.77155
11550000000 -21.448782 -179.72707 -0.67380559 87.526337 -0.66951132 87.515884 -21.389877 172.30038
11560000000 -21.480869 179.70882 -0.67331529 86.970276 -0.67061412 86.957497 -21.411348 171.8243
11570000000 -21.499746 179.0777 -0.67388511 86.415199 -0.67076576 86.403809 -21.432919 171.32994
11580000000 -21.522499 178.52455 -0.67427355 85.859978 -0.67009968 85.850182 -21.46587 170.81091
11590000000 -21.549955 177.92409 -0.67424667 85.30545 -0.67055583 85.294968 -21.499649 170.25679
11600000000 -21.56385 177.36043 -0.67384636 84.752815 -0.67029876 84.738106 -21.540089 169.76805
11610000000 -21.573565 176.80606 -0.67471135 84.192932 -0.67068356 84.178932 -21.575127 169.21341
11620000000 -21.604961 176.27238 -0.67398214 83.634964 -0.67161441 83.620155 -21.594776 168.76382
11630000000 -21.63051 175.69234 -0.67531133 83.077682 -0.67079085 83.064705 -21.623821 168.2453
11640000000 -21.657104 175.12425 -0.67597544 82.520821 -0.67117482 82.506416 -21.646618 167.77559
11650000000 -21.683867 174.5658 -0.67563462 81.964249 -0.67150503 81.947212 -21.666904 167.33255
11660000000 -21.723389 174.0746 -0.67560709 81.405022 -0.67205954 81.390076 -21.682936 166.84189
11670000000 -21.75419 173.48924 -0.6761412 80.852806 -0.67199606 80.836876 -21.694931 166.22661
11680000000 -21.762514 172.83913 -0.67695671 80.296638 -0.67198849 80.281891 -21.740135 165.70239
11690000000 -21.78227 172.1393 -0.67641675 79.743843 -0.67263883 79.728455 -21.751986 165.16702
11700000000 -21.8018 171.60803 -0.67724925 79.185982 -0.67295861 79.172173 -21.772678 164.61057
11710000000 -21.811306 170.95744 -0.67723751 78.629967 -0.67295408 78.621201 -21.789783 164.12944
11720000000 -21.824287 170.42964 -0.67646664 78.075066 -0.67291898 78.06369 -21.829447 163.68083
11730000000 -21.828117 169.83223 -0.67704266 77.518562 -0.67216223 77.507195 -21.84363 163.28418
11740000000 -21.843851 169.30086 -0.67698455 76.962135 -0.67303264 76.952454 -21.881992 162.85243
11750000000 -21.861286 168.79955 -0.6767574 76.407593 -0.67289847 76.395813 -21.918486 162.28442
11760000000 -21.88912 168.24597 -0.67759842 75.846954 -0.67301631 75.838509 -21.960018 161.75885
11770000000 -21.920822 167.81157 -0.67767137 75.290298 -0.67378503 75.275879 -21.999918 161.21959
11780000000 -21.969469 167.30223 -0.67746836 74.736122 -0.6743452 74.721031 -22.040041 160.72366
11790000000 -22.007702 166.85266 -0.67789495 74.178665 -0.67431349 74.162971 -22.06736 160.20538
11800000000 -22.043915 166.41743 -0.6779204 73.623123 -0.67462462 73.610565 -22.105343 159.62245
11810000000 -22.093601 165.9718 -0.67733276 73.068886 -0.67478031 73.052505 -22.128641 159.06265
11820000000 -22.110928 165.44044 -0.67793912 72.514038 -0.67476219 72.497597 -22.155502 158.45381
11830000000 -22.153172 164.90947 -0.67885852 71.962296 -0.67431378 71.948189 -22.193174 157.80589
11840000000 -22.165632 164.37721 -0.67784506 71.407959 -0.67530495 71.392357 -22.21438 157.19107
11850000000 -22.202284 163.84581 -0.67882884 70.849182 -0.67470926 70.836311 -22.252079 156.70227
11860000000 -22.231539 163.21719 -0.67851651 70.298347 -0.67531043 70.283081 -22.282146 156.17848
11870000000 -22.260185 162.59523 -0.67850292 69.742599 -0.67508966 69.726715 -22.292574 155.69763
11880000000 -22.300571 161.97456 -0.67864966 69.183395 -0.67458194 69.161339 -22.320316 155.20207
11890000000 -22.346415 161.31549 -0.67814553 68.62471 -0.6754002 68.609085 -22.35499 154.66716
11900000000 -22.376272 160.79326 -0.67895842 68.064888 -0.67545104 68.04937 -22.377886 154.34402
11910000000 -22.408245 160.21446 -0.67936426 67.502457 -0.67584568 67.490608 -22.407331 153.80106
11920000000 -22.438538 159.71851 -0.67890543 66.941116 -0.67634898 66.931198 -22.435007 153.4695
11930000000 -22.471289 159.18753 -0.67986554 66.389969 -0.67670113 66.374168 -22.469269 152.91959
11940000000 -22.502617 158.67575 -0.68088132 65.832626 -0.67666906 65.822769 -22.504328 152.44553
11950000000 -22.529785 158.01874 -0.68015832 65.276054 -0.67686081 65.265259 -22.533039 152.06285
11960000000 -22.565809 157.37016 -0.6802991 64.724449 -0.67718452 64.710144 -22.561874 151.59583
11970000000 -22.610525 156.66496 -0.68097705 64.165298 -0.67655349 64.153709 -22.586233 151.03838
11980000000 -22.646009 155.97861 -0.68044776 63.610039 -0.67670834 63.594177 -22.627207 150.58337
11990000000 -22.690876 155.30388 -0.68133891 63.055759 -0.67718577 63.038029 -22.663166 150.04489
12000000000 -22.751127 154.6644 -0.68018132 62.497265 -0.67733431 62.486294 -22.706024 149.57602
12010000000 -22.79645 154.05736 -0.67991155 61.937057 -0.67717427 61.92107 -22.745729 149.07961
12020000000 -22.83077 153.42973 -0.67943484 61.374886 -0.67788285 61.361786 -22.814547 148.75455
12030000000 -22.867785 152.78793 -0.6803242 60.819576 -0.67695189 60.804428 -22.8557 148.27213
12040000000 -22.90324 152.28493 -0.68056464 60.257057 -0.67817515 60.243881 -22.907234 147.78343
12050000000 -22.952295 151.69073 -0.68099093 59.694611 -0.67864633 59.68763 -22.939165 147.31082
12060000000 -22.99275 151.07924 -0.6815027 59.135056 -0.67831922 59.128551 -22.994823 146.79729
12070000000 -23.034504 150.56726 -0.68120748 58.58334 -0.67814732 58.567684 -23.040459 146.26552
12080000000 -23.057077 149.98424 -0.6820612 58.022026 -0.67855376 58.006248 -23.079237 145.79375
12090000000 -23.088903 149.46771 -0.68094039 57.46299 -0.67896628 57.450954 -23.110722 145.2144
12100000000 -23.107323 148.87453 -0.68226594 56.907738 -0.67938095 56.895004 -23.136236 144.56784
12110000000 -23.132267 148.34419 -0.68266761 56.352898 -0.67883372 56.335461 -23.181787 143.92503
12120000000 -23.176943 147.91969 -0.68146092 55.792515 -0.67918116 55.7803 -23.236433 143.24637
12130000000 -23.20986 147.35693 -0.68173134 55.235428 -0.67864698 55.217751 -23.275183 142.65498
12140000000 -23.242115 146.82903 -0.68223989 54.671368 -0.67889607 54.660538 -23.308432 142.13536
12150000000 -23.289227 146.33751 -0.68224871 54.108181 -0.67979324 54.09938 -23.331949 141.60545
12160000000 -23.335461 145.80362 -0.68249917 53.55545 -0.67991978 53.540585 -23.38125 141.05475
12170000000 -23.385733 145.31099 -0.68231291 52.994198 -0.67999303 52.977921 -23.419567 140.67313
12180000000 -23.44541 144.79715 -0.68355286 52.439384 -0.68003905 52.420296 -23.45079 140.14963
12190000000 -23.503941 144.29985 -0.68423796 51.87825 -0.68075508 51.86684 -23.492346 139.79323
12200000000 -23.581202 143.58572 -0.68415642 51.318195 -0.68097216 51.303291 -23.543686 139.44279
12210000000 -23.636356 142.88672 -0.68447095 50.759838 -0.68015951 50.747589 -23.585863 139.00563
12220000000 -23.675131 142.21674 -0.68519044 50.200001 -0.68095976 50.18853 -23.619339 138.59059
12230000000 -23.726162 141.49817 -0.68462676 49.646362 -0.68107939 49.629593 -23.675163 138.0836
12240000000 -23.773504 140.97597 -0.68458885 49.086533 -0.68088681 49.068447 -23.727205 137.74663
12250000000 -23.813145 140.24753 -0.68437338 48.529007 -0.6811654 48.51025 -23.802523 137.25827
12260000000 -23.877802 139.64149 -0.68525839 47.969398 -0.67997909 47.952934 -23.872562 136.84184
12270000000 -23.900915 139.09206 -0.68494374 47.409164 -0.68052042 47.399151 -23.924643 136.4792
12280000000 -23.943089 138.56741 -0.68420976 46.848549 -0.68112177 46.830212 -23.979534 136.03279
12290000000 -23.996269 137.92224 -0.68429881 46.289581 -0.68045563 46.268894 -24.050577 135.55273
12300000000 -24.060694 137.47725 -0.68462187 45.732819 -0.68100578 45.715614 -24.108511 135.08514
12310000000 -24.123789 137.05692 -0.68528199 45.165726 -0.68151546 45.151566 -24.162182 134.63043
12320000000 -24.188673 136.53044 -0.68562758 44.608097 -0.68122834 44.599983 -24.225256 133.94983
12330000000 -24.251738 135.95404 -0.68611228 44.051079 -0.68210906 44.037643 -24.253975 133.41322
12340000000 -24.313457 135.32449 -0.68600285 43.494759 -0.68193763 43.477978 -24.307516 132.86803
12350000000 -24.376936 134.76347 -0.68647516 42.936615 -0.68182981 42.919487 -24.32023 132.40802
12360000000 -24.415142 134.18532 -0.68669713 42.375401 -0.68266851 42.356674 -24.366245 132.03188
12370000000 -24.452381 133.46335 -0.68687481 41.819107 -0.68291479 41.801575 -24.39502 131.52623
12380000000 -24.502909 132.79996 -0.68661344 41.25256 -0.68304509 41.238377 -24.442537 131.22464
12390000000 -24.542763 131.97876 -0.686759 40.698654 -0.68316686 40.685818 -24.483971 130.71733
12400000000 -24.575209 131.3504 -0.68604225 40.138794 -0.68330199 40.12648 -24.540003 130.30157
12410000000 -24.606901 130.68968 -0.68672562 39.577045 -0.68294871 39.565269 -24.586843 129.83553
12420000000 -24.649961 130.08522 -0.68678266 39.02029 -0.68366313 39.004204 -24.652964 129.40419
12430000000 -24.697222 129.67291 -0.68724173 38.459972 -0.68340617 38.438984 -24.703857 129.01892
12440000000 -24.750647 129.34441 -0.68625176 37.895893 -0.68271244 37.879261 -24.769421 128.62851
12450000000 -24.80761 128.987 -0.6871441 37.336147 -0.68344468 37.324368 -24.846947 128.24432
12460000000 -24.884344 128.68968 -0.68681353 36.779625 -0.68382192 36.764214 -24.902626 127.72286
12470000000 -24.940825 128.40524 -0.68793285 36.219215 -0.68349832 36.198944 -24.953646 127.22046
12480000000 -25.037416 127.71974 -0.68772876 35.659405 -0.68450552 35.644772 -25.022676 126.4615
12490000000 -25.119287 127.14799 -0.68830079 35.10162 -0.68449491 35.082592 -25.094297 125.8036
12500000000 -25.217199 126.57126 -0.68857497 34.539413 -0.68487465 34.524315 -25.171564 125.37675
12510000000 -25.312574 125.99921 -0.6885407 33.975983 -0.68541175 33.960571 -25.242582 124.80258
12520000000 -25.40255 125.23009 -0.68817914 33.416759 -0.68465585 33.401066 -25.306944 124.43365
12530000000 -25.483551 124.609 -0.68818915 32.861652 -0.68535656 32.84034 -25.36573 124.0195
12540000000 -25.565012 124.07789 -0.68931091 32.291458 -0.68448979 32.274204 -25.440117 123.52442
12550000000 -25.641785 123.49186 -0.68895566 31.73369 -0.68467826 31.714598 -25.562218 123.17506
12560000000 -25.728794 123.04045 -0.68918985 31.166153 -0.68499166 31.153347 -25.623672 122.83237
12570000000 -25.803656 122.38606 -0.68895292 30.609762 -0.68564546 30.596304 -25.686907 122.3225
12580000000 -25.87537 122.0667 -0.68937916 30.048147 -0.6855427 30.02487 -25.762491 121.96059
12590000000 -25.959215 121.58356 -0.68900359 29.486597 -0.68599164 29.468859 -25.847078 121.45046
12600000000 -26.061491 121.2197 -0.68986768 28.926207 -0.68613106 28.91086 -25.923969 120.95271
12610000000 -26.16736 120.71001 -0.68954819 28.360962 -0.68717319 28.348951 -25.982685 120.45831
12620000000 -26.281435 120.14928 -0.68969566 27.802139 -0.68636334 27.786703 -26.062214 119.67498
12630000000 -26.386063 119.74429 -0.69098413 27.247271 -0.68643516 27.224466 -26.133429 119.04315
12640000000 -26.468447 119.2067 -0.69145942 26.68206 -0.6868372 26.666948 -26.207663 118.56158
12650000000 -26.545137 118.67395 -0.69093555 26.125498 -0.68722868 26.100874 -26.274366 118.26227
12660000000 -26.674194 118.02339 -0.6898194 25.556381 -0.68596709 25.544352 -26.365341 117.89707
12670000000 -26.761539 117.36475 -0.69049609 24.995773 -0.68591583 24.979889 -26.448431 117.48466
12680000000 -26.875309 116.8254 -0.68951845 24.437696 -0.68605739 24.418242 -26.563742 117.33952
12690000000 -26.962927 116.35339 -0.69010103 23.873688 -0.68543142 23.853048 -26.645157 116.97588
12700000000 -27.078905 115.65073 -0.69149464 23.31172 -0.686055 23.294189 -26.757061 116.68895
12710000000 -27.182859 115.14426 -0.69174534 22.74736 -0.68785065 22.731617 -26.837963 116.17376
12720000000 -27.295212 114.74783 -0.69180912 22.188097 -0.68753403 22.167694 -26.954058 115.88773
12730000000 -27.431965 114.40852 -0.69163853 21.626169 -0.6873318 21.602577 -27.07576 115.55295
12740000000 -27.564768 113.91422 -0.69231486 21.068604 -0.68781096 21.047195 -27.182098 114.92748
12750000000 -27.715206 113.37787 -0.69270533 20.503111 -0.6881488 20.486366 -27.27269 114.48108
12760000000 -27.837738 112.67031 -0.69187683 19.945686 -0.68896961 19.926172 -27.386742 113.82559
12770000000 -27.978382 112.26469 -0.69140416 19.380692 -0.68807995 19.36235 -27.506124 113.27058
12780000000 -28.143963 111.5001 -0.69184005 18.821955 -0.6882835 18.798624 -27.603472 112.82275
12790000000 -28.256317 110.97803 -0.69274205 18.258539 -0.68797833 18.237852 -27.732744 112.59604
12800000000 -28.393019 110.51441 -0.69171774 17.691061 -0.68769962 17.673174 -27.826838 112.27625
12810000000 -28.495674 109.81743 -0.69205439 17.136885 -0.68883157 17.114243 -27.939325 111.67187
12820000000 -28.646273 109.19804 -0.69163972 16.575176 -0.68808997 16.549261 -28.028751 111.26994
12830000000 -28.775961 108.63493 -0.69382733 16.00322 -0.68864292 15.987103 -28.138844 110.83076
12840000000 -28.862869 108.04301 -0.69416875 15.439533 -0.68984884 15.42174 -28.219717 110.30631
12850000000 -29.044397 107.25761 -0.69481999 14.877315 -0.69087124 14.864099 -28.344154 109.86817
12860000000 -29.226915 106.72785 -0.69389266 14.318974 -0.689969 14.295871 -28.47928 109.45242
12870000000 -29.395628 106.43037 -0.69341922 13.758892 -0.68998146 13.739653 -28.603432 109.16516
12880000000 -29.573402 105.96114 -0.69423252 13.199405 -0.68987221 13.172113 -28.726835 109.06959
12890000000 -29.757179 105.2748 -0.69320691 12.636633 -0.6903131 12.609857 -28.913486 108.51761
12900000000 -29.958353 104.54143 -0.6940214 12.064581 -0.68979061 12.053466 -29.052103 108.40587
12910000000 -30.155787 103.57138 -0.69300836 11.50481 -0.69093615 11.491772 -29.203281 107.87097
12920000000 -30.328053 102.86318 -0.6948002 10.945172 -0.69027913 10.924308 -29.368223 107.5522
12930000000 -30.490932 102.39127 -0.69482601 10.380383 -0.69101721 10.36025 -29.551281 107.01408
12940000000 -30.661077 101.64279 -0.69492203 9.8183107 -0.69156903 9.7987137 -29.692879 106.51134
12950000000 -30.828442 101.18168 -0.69543755 9.2496815 -0.69233644 9.2335672 -29.843306 105.97952
12960000000 -31.000628 100.50048 -0.695481 8.690321 -0.69221896 8.671957 -30.025316 105.33312
12970000000 -31.179928 100.14729 -0.69589239 8.1261616 -0.69232279 8.1058521 -30.180763 104.89066
12980000000 -31.407354 99.529869 -0.69588298 7.5631375 -0.69184917 7.5427246 -30.340672 104.5359
12990000000 -31.641293 98.96376 -0.69609171 6.998044 -0.69218433 6.9775777 -30.499029 104.19939
13000000000 -31.852087 98.196899 -0.69614828 6.4371758 -0.69270653 6.411808 -30.642727 103.83913
13010000000 -32.134159 97.61348 -0.6960091 5.8787031 -0.69246089 5.852984 -30.814804 103.67972
13020000000 -32.366859 96.820641 -0.69570309 5.3156471 -0.69290388 5.2935715 -31.032364 103.29596
13030000000 -32.608589 96.141052 -0.69633299 4.747488 -0.69381702 4.7266731 -31.237411 103.17729
13040000000 -32.870934 95.063385 -0.6971271 4.1824646 -0.69262302 4.1611032 -31.456408 103.18734
13050000000 -33.118214 94.27993 -0.69809127 3.6212204 -0.69393909 3.5956566 -31.621906 102.78652
13060000000 -33.424572 93.554062 -0.69713074 3.0547495 -0.69317627 3.0346391 -31.895166 102.6925
13070000000 -33.709221 92.811531 -0.69801712 2.4918807 -0.69376326 2.4735763 -32.13739 102.50494
13080000000 -33.994022 92.76767 -0.696832 1.9263418 -0.69387776 1.9048183 -32.451244 102.65768
13090000000 -34.291981 92.337204 -0.69770581 1.362283 -0.693865 1.3370416 -32.723568 102.71748
13100000000 -34.623798 91.581398 -0.69801015 0.79676086 -0.69412136 0.77227199 -32.956593 102.57084
13110000000 -34.943298 90.831017 -0.6977663 0.2312288 -0.6948455 0.20989719 -33.198608 102.23637
13120000000 -35.301064 90.043274 -0.69889027 -0.33553231 -0.69444662 -0.35859483 -33.428413 102.24164
13130000000 -35.656612 88.128494 -0.69852632 -0.89581019 -0.69507545 -0.91664833 -33.72657 101.88123
13140000000 -36.034454 86.40654 -0.6991536 -1.4624137 -0.69580066 -1.4848629 -33.946484 102.16908
13150000000 -36.359741 84.86496 -0.69942695 -2.0265453 -0.69676816 -2.0487223 -34.171982 102.50263
13160000000 -36.732677 82.735542 -0.70038009 -2.5858989 -0.69562775 -2.6103201 -34.472965 102.88338
13170000000 -37.136742 81.717125 -0.69958752 -3.1539819 -0.69539291 -3.1763735 -34.758694 104.25162
13180000000 -37.559883 79.695015 -0.69993514 -3.7156737 -0.69504321 -3.7413254 -35.003902 105.20629
13190000000 -37.920876 77.739761 -0.69975233 -4.2875357 -0.69542813 -4.304657 -35.303959 106.27776
13200000000 -38.314442 76.859192 -0.70024627 -4.8519835 -0.69627225 -4.8735452 -35.579552 106.88258
13210000000 -38.761604 75.401817 -0.69908488 -5.413238 -0.69650108 -5.443789 -35.97752 108.147
13220000000 -39.314587 74.082909 -0.70064348 -5.9835324 -0.69655424 -6.0034399 -36.288715 108.86381
13230000000 -39.699169 72.364464 -0.70140404 -6.5508747 -0.69705963 -6.5682254 -36.736782 109.72736
13240000000 -40.419796 70.657555 -0.70179254 -7.1209164 -0.69777238 -7.1377125 -37.160648 110.17289
13250000000 -40.975983 68.780296 -0.70219451 -7.6841693 -0.69780403 -7.7001247 -37.62479 111.34351
13260000000 -41.574474 65.652992 -0.70211661 -8.2452049 -0.69913626 -8.2679234 -38.127968 112.91348
13270000000 -42.215786 62.124142 -0.7024979 -8.8104639 -0.69942725 -8.8291225 -38.529366 113.82109
13280000000 -42.871319 58.41415 -0.70366597 -9.3744793 -0.69978034 -9.3949165 -38.882053 115.46233
13290000000 -43.533173 55.407421 -0.70378953 -9.9388285 -0.70004678 -9.9563732 -39.232647 117.9371
13300000000 -44.410011 52.317932 -0.70399928 -10.496323 -0.69986486 -10.522239 -39.624126 120.39991
13310000000 -44.912857 48.969635 -0.70284903 -11.061516 -0.69966966 -11.082829 -39.973606 123.75038
13320000000 -45.839157 45.144455 -0.70470071 -11.631327 -0.6995182 -11.647601 -40.326187 126.57409
13330000000 -46.487091 40.892014 -0.70368725 -12.196045 -0.70091909 -12.217341 -40.636074 129.48911
13340000000 -47.281784 36.339787 -0.7050609 -12.763494 -0.70137084 -12.792267 -40.908138 132.64284
13350000000 -48.494171 29.531809 -0.70559716 -13.328119 -0.70173532 -13.356253 -41.228588 136.0621
13360000000 -49.849941 21.304596 -0.70562148 -13.8964 -0.70258856 -13.921355 -41.744488 141.07661
13370000000 -50.946259 7.1462078 -0.70611972 -14.462652 -0.70214581 -14.484357 -41.910854 146.73604
13380000000 -51.496681 -10.742428 -0.70765835 -15.024452 -0.70277512 -15.056041 -42.038254 152.62148
13390000000 -51.038586 -28.599363 -0.70747191 -15.593572 -0.70281589 -15.614663 -41.938858 157.90585
13400000000 -49.788956 -44.496964 -0.70721841 -16.155342 -0.70336038 -16.183453 -41.905945 162.35229
13410000000 -48.585781 -52.825733 -0.70836985 -16.723358 -0.70415908 -16.746792 -41.757328 167.19829
13420000000 -47.467438 -57.669186 -0.70824337 -17.288998 -0.70379657 -17.310652 -41.475075 173.26045
13430000000 -46.238785 -63.043938 -0.709445 -17.854633 -0.70517933 -17.881313 -41.184139 176.18404
13440000000 -45.265614 -66.442749 -0.70998269 -18.418432 -0.70630491 -18.44062 -40.817806 178.85555
13450000000 -44.436966 -70.579811 -0.70992023 -18.983349 -0.70632499 -19.00946 -40.428429 -178.51045
13460000000 -43.748375 -73.78949 -0.70992142 -19.555641 -0.70569521 -19.576204 -39.983147 -175.64888
13470000000 -43.125263 -76.807243 -0.71048629 -20.11875 -0.70679289 -20.143686 -39.597702 -172.91431
13480000000 -42.381912 -79.306091 -0.71123207 -20.690269 -0.70682913 -20.709913 -39.180626 -170.54623
13490000000 -41.757072 -82.374779 -0.71150255 -21.25737 -0.70684707 -21.275406 -38.680408 -168.48285
13500000000 -41.240669 -85.132179 -0.71082324 -21.819199 -0.70752245 -21.841593 -38.190914 -165.03275
13510000000 -40.58255 -87.259087 -0.71147084 -22.38735 -0.70786095 -22.413496 -37.67844 -163.92114
13520000000 -39.942581 -88.223061 -0.7108714 -22.954525 -0.70810896 -22.979851 -37.176369 -162.32343
13530000000 -39.449211 -89.963531 -0.71334267 -23.521496 -0.70960134 -23.547493 -36.814079 -161.23421
13540000000 -38.863346 -92.545952 -0.71340644 -24.090502 -0.7098251 -24.118734 -36.483288 -160.06491
13550000000 -38.49839 -94.306511 -0.71397573 -24.657434 -0.71068054 -24.687193 -36.010113 -158.56104
13560000000 -37.989857 -95.567024 -0.7151652 -25.220781 -0.71162486 -25.254597 -35.634262 -157.56781
13570000000 -37.42775 -97.618599 -0.71550095 -25.790009 -0.7114858 -25.81839 -35.239811 -156.9492
13580000000 -36.94833 -99.534645 -0.71552509 -26.357916 -0.71194535 -26.385115 -34.989056 -156.51192
13590000000 -36.536438 -101.61646 -0.715707 -26.92626 -0.71279997 -26.951658 -34.633118 -155.7536
13600000000 -36.079433 -103.47829 -0.71654737 -27.496893 -0.71245652 -27.519464 -34.318928 -154.98537
13610000000 -35.686722 -104.78036 -0.71582907 -28.061899 -0.71334416 -28.087896 -33.880871 -153.8998
13620000000 -35.294052 -106.23353 -0.71747804 -28.63238 -0.71344882 -28.653095 -33.547569 -153.49252
13630000000 -34.932217 -107.49649 -0.71812177 -29.199097 -0.71438217 -29.224634 -33.227917 -153.22006
13640000000 -34.59866 -108.50031 -0.71868068 -29.767052 -0.71550399 -29.791842 -32.958786 -152.66475
13650000000 -34.225052 -109.38652 -0.7187711 -30.33268 -0.71602476 -30.352985 -32.691208 -152.06616
13660000000 -33.926231 -110.17851 -0.71977615 -30.906521 -0.71667624 -30.922821 -32.410004 -151.88254
13670000000 -33.635006 -111.44364 -0.7211411 -31.475834 -0.71762949 -31.491888 -32.143017 -151.83035
13680000000 -33.334805 -112.1629 -0.7213425 -32.034344 -0.71780264 -32.053532 -31.974808 -151.75204
13690000000 -33.006252 -113.45805 -0.72200334 -32.605232 -0.71732962 -32.629757 -31.724951 -151.80258
13700000000 -32.763023 -114.07468 -0.72255605 -33.167664 -0.71844858 -33.193367 -31.526855 -151.9131
13710000000 -32.463249 -115.0246 -0.7230128 -33.739609 -0.71912909 -33.764732 -31.289415 -151.90228
13720000000 -32.194065 -116.12753 -0.7234785 -34.311806 -0.72038174 -34.330303 -31.084162 -152.03984
13730000000 -31.922361 -117.14906 -0.72421825 -34.874798 -0.71991855 -34.898922 -30.851835 -152.37975
13740000000 -31.680285 -118.03292 -0.72477978 -35.4454 -0.7204994 -35.468651 -30.627539 -152.38704
13750000000 -31.390327 -118.61468 -0.7252273 -36.012947 -0.72081262 -36.03706 -30.368948 -152.81909
13760000000 -31.123142 -119.3308 -0.72616595 -36.584557 -0.72174507 -36.600605 -30.154753 -153.05498
13770000000 -30.887194 -120.13042 -0.72676295 -37.149208 -0.7230376 -37.170094 -29.934021 -153.37994
13780000000 -30.626307 -120.93117 -0.72733152 -37.72287 -0.72362745 -37.738365 -29.70965 -153.68163
13790000000 -30.394981 -121.73848 -0.72838664 -38.283813 -0.72358948 -38.307697 -29.46726 -153.81535
13800000000 -30.14764 -122.30551 -0.72901148 -38.85371 -0.72463053 -38.872845 -29.204418 -153.85997
13810000000 -29.896147 -123.24456 -0.72973597 -39.422512 -0.72606713 -39.43795 -28.970709 -154.04704
13820000000 -29.672379 -124.19462 -0.73125386 -39.987469 -0.72606343 -40.006794 -28.748869 -154.06155
13830000000 -29.417059 -125.26607 -0.73117328 -40.55394 -0.72678924 -40.572609 -28.547804 -154.02403
13840000000 -29.191566 -126.29398 -0.7313813 -41.12088 -0.72706592 -41.142624 -28.339783 -153.96501
13850000000 -28.948175 -127.24286 -0.7323249 -41.688168 -0.72777289 -41.710602 -28.169399 -153.90529
13860000000 -28.742958 -128.1199 -0.7326681 -42.259567 -0.72883087 -42.27634 -28.003345 -154.13937
13870000000 -28.53978 -128.91399 -0.73260623 -42.825054 -0.72953874 -42.846069 -27.880274 -154.28859
13880000000 -28.358116 -129.70317 -0.73414719 -43.393082 -0.73046452 -43.415981 -27.747736 -154.373
13890000000 -28.14529 -130.22488 -0.73523736 -43.960274 -0.73114848 -43.984905 -27.591673 -154.55516
13900000000 -27.92832 -130.91508 -0.7362361 -44.524357 -0.73212028 -44.551929 -27.418999 -155.04214
13910000000 -27.732819 -131.6602 -0.73635113 -45.096436 -0.73180652 -45.114445 -27.250286 -155.47621
13920000000 -27.526531 -132.39844 -0.7369262 -45.659378 -0.73345631 -45.682076 -27.105894 -156.08925
13930000000 -27.303034 -132.90681 -0.73762012 -46.226952 -0.73331475 -46.250687 -26.936684 -156.46605
13940000000 -27.123756 -133.42825 -0.73745471 -46.7971 -0.73481148 -46.817387 -26.733965 -156.90157
13950000000 -26.943626 -133.96786 -0.73857337 -47.357105 -0.73565006 -47.387821 -26.570454 -157.43137
13960000000 -26.773952 -134.61882 -0.73895538 -47.926834 -0.73683727 -47.953922 -26.411749 -157.87151
13970000000 -26.613113 -135.11156 -0.74111384 -48.493614 -0.73774862 -48.521267 -26.267714 -158.26398
13980000000 -26.430365 -135.74013 -0.74029082 -49.064339 -0.73815727 -49.090897 -26.093891 -158.52373
13990000000 -26.251781 -136.2133 -0.74152595 -49.635395 -0.73858196 -49.654728 -25.93939 -158.76326
14000000000 -26.09367 -136.70999 -0.7425378 -50.207169 -0.73914778 -50.226265 -25.783381 -159.12387
14010000000 -25.938839 -137.28098 -0.74341905 -50.774822 -0.74017537 -50.798904 -25.634615 -159.36105
14020000000 -25.768448 -137.86804 -0.744596 -51.346268 -0.74095023 -51.363277 -25.52874 -159.53673
14030000000 -25.61743 -138.51158 -0.74482465 -51.911255 -0.74247879 -51.937256 -25.403954 -159.90195
14040000000 -25.461737 -139.03517 -0.74640745 -52.477406 -0.74354529 -52.503708 -25.283545 -160.32552
14050000000 -25.318039 -139.72369 -0.74781066 -53.050346 -0.74372286 -53.07716 -25.179424 -160.78046
14060000000 -25.184175 -140.2554 -0.74834144 -53.622997 -0.74461567 -53.647617 -25.075333 -161.27182
14070000000 -25.047556 -140.81459 -0.74995881 -54.18726 -0.74555361 -54.212856 -24.959942 -161.69702
14080000000 -24.918486 -141.36009 -0.75001907 -54.76207 -0.74685442 -54.78162 -24.835144 -162.08046
14090000000 -24.770966 -141.9127 -0.75109786 -55.331993 -0.74817848 -55.351768 -24.693233 -162.67529
14100000000 -24.627047 -142.42468 -0.75208521 -55.895039 -0.74853212 -55.917202 -24.59174 -163.1851
14110000000 -24.473843 -142.95938 -0.75246501 -56.465595 -0.74909991 -56.486271 -24.433498 -163.58749
14120000000 -24.327711 -143.45862 -0.75335842 -57.031429 -0.74999142 -57.058079 -24.279657 -163.91014
14130000000 -24.168015 -143.94197 -0.75390345 -57.606403 -0.75096124 -57.626472 -24.11783 -164.33937
14140000000 -24.037928 -144.55553 -0.75566334 -58.165207 -0.75154746 -58.193233 -23.980104 -164.66254
14150000000 -23.901981 -145.19102 -0.75762272 -58.741367 -0.75256169 -58.768341 -23.82976 -165.05768
14160000000 -23.776909 -145.79134 -0.75776291 -59.311218 -0.75454617 -59.338718 -23.707775 -165.50137
14170000000 -23.63941 -146.44936 -0.75879645 -59.878349 -0.75588882 -59.903198 -23.596706 -165.79329
14180000000 -23.508234 -146.96698 -0.76007754 -60.445637 -0.75609678 -60.471973 -23.49297 -166.12108
14190000000 -23.391954 -147.5889 -0.76034832 -61.013432 -0.75777 -61.038418 -23.380442 -166.30872
14200000000 -23.27154 -148.18169 -0.76161164 -61.580952 -0.75772101 -61.61071 -23.26573 -166.66336
14210000000 -23.164524 -148.68687 -0.76379776 -62.149361 -0.75877738 -62.174782 -23.170996 -167.07288
14220000000 -23.047478 -149.23636 -0.76474631 -62.714947 -0.76046181 -62.743423 -23.084183 -167.57527
14230000000 -22.945791 -149.78758 -0.76552337 -63.28706 -0.76174861 -63.314064 -22.970293 -167.93767
14240000000 -22.841755 -150.28667 -0.76593435 -63.858566 -0.76168013 -63.87854 -22.860485 -168.32324
14250000000 -22.748581 -150.82143 -0.76650071 -64.425339 -0.76176161 -64.447815 -22.758167 -168.76906
14260000000 -22.628674 -151.28171 -0.76752245 -64.992065 -0.76346481 -65.015816 -22.659571 -169.20528
14270000000 -22.51342 -151.85786 -0.76824468 -65.562149 -0.76526064 -65.579796 -22.543015 -169.69077
14280000000 -22.405272 -152.4198 -0.76999003 -66.125206 -0.76590413 -66.15374 -22.418011 -170.23444
14290000000 -22.296066 -152.98601 -0.77040511 -66.697647 -0.76713353 -66.72583 -22.307245 -170.65479
14300000000 -22.185265 -153.59402 -0.77139437 -67.262642 -0.76837939 -67.2938 -22.198147 -171.09888
14310000000 -22.079531 -154.14694 -0.77201027 -67.832779 -0.76851749 -67.856644 -22.098551 -171.52902
14320000000 -21.96291 -154.72514 -0.77443677 -68.398529 -0.76967663 -68.428894 -21.981077 -171.95232
14330000000 -21.861544 -155.26968 -0.77455932 -68.967178 -0.77121228 -68.993095 -21.874796 -172.3219
14340000000 -21.759832 -155.80141 -0.77655417 -69.536674 -0.77314585 -69.558548 -21.769403 -172.78873
14350000000 -21.65181 -156.36383 -0.77735376 -70.102615 -0.7743715 -70.128067 -21.66991 -173.25676
14360000000 -21.545042 -156.75932 -0.77858645 -70.669205 -0.77434301 -70.694176 -21.588236 -173.57169
14370000000 -21.452572 -157.26965 -0.77971447 -71.24511 -0.77565408 -71.257294 -21.494371 -173.98964
14380000000 -21.35553 -157.82677 -0.78189331 -71.805725 -0.7761994 -71.831963 -21.394913 -174.44374
14390000000 -21.288439 -158.34169 -0.78159767 -72.379982 -0.77832323 -72.393196 -21.312344 -174.99048
14400000000 -21.207243 -158.86771 -0.78311831 -72.945969 -0.77954596 -72.969009 -21.217884 -175.56654
14410000000 -21.134867 -159.41092 -0.78416288 -73.51815 -0.78053731 -73.535973 -21.145163 -176.04958
14420000000 -21.052944 -159.88342 -0.78535652 -74.088486 -0.78174424 -74.109894 -21.056847 -176.47556
14430000000 -20.96014 -160.49747 -0.78670567 -74.657829 -0.78212267 -74.682098 -20.951189 -176.9267
14440000000 -20.875589 -161.06418 -0.78773588 -75.224724 -0.78438765 -75.251122 -20.865662 -177.55038
14450000000 -20.792185 -161.6553 -0.78925341 -75.795479 -0.78554112 -75.814789 -20.777342 -178.07748
14460000000 -20.689884 -162.17776 -0.79057366 -76.363136 -0.78635973 -76.384987 -20.69062 -178.58151
14470000000 -20.593781 -162.73271 -0.7912218 -76.930664 -0.78692317 -76.952568 -20.591904 -178.98531
14480000000 -20.506838 -163.27312 -0.79293811 -77.497604 -0.78942913 -77.520271 -20.494965 -179.55199
14490000000 -20.423031 -163.86082 -0.79454762 -78.06839 -0.79062766 -78.087631 -20.403711 179.96106
14500000000 -20.353462 -164.3461 -0.79630756 -78.636803 -0.79131526 -78.659531 -20.327829 179.44472
14510000000 -20.282215 -164.85246 -0.79718548 -79.207352 -0.79294062 -79.227699 -20.240896 178.94054
14520000000 -20.225077 -165.45113 -0.79821879 -79.778069 -0.79495138 -79.798172 -20.154762 178.48897
14530000000 -20.163548 -166.08009 -0.79923028 -80.347961 -0.79632872 -80.368111 -20.074032 177.94521
14540000000 -20.087557 -166.61285 -0.80192888 -80.92128 -0.79745728 -80.941254 -20.000971 177.49321
14550000000 -20.011904 -167.17862 -0.80161315 -81.49218 -0.79805642 -81.515831 -19.905809 177.13174
14560000000 -19.94313 -167.84557 -0.803936 -82.061897 -0.79998922 -82.085197 -19.817024 176.6185
14570000000 -19.870865 -168.43452 -0.80460769 -82.632729 -0.80121219 -82.661713 -19.745028 176.09232
14580000000 -19.78948 -169.11847 -0.8057403 -83.201561 -0.80311221 -83.228241 -19.669321 175.60002
14590000000 -19.71312 -169.74684 -0.8077907 -83.773079 -0.80426437 -83.793953 -19.60313 175.01479
14600000000 -19.635695 -170.26479 -0.80902642 -84.345116 -0.80599338 -84.362587 -19.535437 174.48203
14610000000 -19.55187 -170.85315 -0.81055361 -84.909882 -0.80833817 -84.936104 -19.459877 173.95683
14620000000 -19.476864 -171.41605 -0.81165469 -85.483383 -0.80873889 -85.502441 -19.380743 173.41446
14630000000 -19.404545 -171.94662 -0.81334102 -86.052376 -0.81004071 -86.069725 -19.307373 172.83923
14640000000 -19.338575 -172.38867 -0.81447315 -86.625481 -0.8111214 -86.642738 -19.221504 172.35645
14650000000 -19.267767 -173.01564 -0.81618339 -87.193443 -0.81265587 -87.210152 -19.143597 171.79218
14660000000 -19.211164 -173.5435 -0.81734467 -87.762451 -0.81324303 -87.782974 -19.05801 171.33679
14670000000 -19.144165 -174.18506 -0.81791806 -88.333298 -0.81474322 -88.3507 -18.97098 170.83438
14680000000 -19.082857 -174.80211 -0.81977254 -88.902985 -0.8169716 -88.924965 -18.886108 170.23253
14690000000 -19.014711 -175.39824 -0.82192844 -89.472694 -0.81778961 -89.49604 -18.820881 169.70453
14700000000 -18.948669 -176.09326 -0.8233062 -90.040863 -0.81952024 -90.064613 -18.753593 169.11971
14710000000 -18.873804 -176.71794 -0.82495666 -90.613426 -0.82167506 -90.637154 -18.694033 168.57469
14720000000 -18.805487 -177.29228 -0.82620984 -91.180809 -0.82225937 -91.206436 -18.631145 168.07162
14730000000 -18.724739 -177.84824 -0.8276726 -91.752037 -0.82384282 -91.775276 -18.563911 167.60817
14740000000 -18.649933 -178.38618 -0.82897604 -92.320427 -0.82577622 -92.343941 -18.4993 167.01115
14750000000 -18.579397 -178.86763 -0.83007491 -92.88652 -0.8265925 -92.913231 -18.427259 166.44315
14760000000 -18.51684 -179.4093 -0.83164459 -93.456627 -0.8277725 -93.484306 -18.365112 165.95819
14770000000 -18.447485 -179.92998 -0.83225316 -94.022835 -0.82895285 -94.050491 -18.303766 165.38612
14780000000 -18.396173 179.50381 -0.83391774 -94.588013 -0.83007085 -94.615555 -18.228291 164.84445
14790000000 -18.334034 178.98361 -0.83607155 -95.157394 -0.8321923 -95.185951 -18.162148 164.16237
14800000000 -18.283964 178.40189 -0.83744246 -95.725281 -0.83404946 -95.752823 -18.087938 163.50447
14810000000 -18.230579 177.79329 -0.8394658 -96.301361 -0.83497113 -96.315567 -18.018578 163.00481
14820000000 -18.164772 177.15472 -0.84100968 -96.866745 -0.83749396 -96.889297 -17.948294 162.44171
14830000000 -18.105993 176.53638 -0.84199536 -97.43222 -0.83838058 -97.45697 -17.887133 161.96718
14840000000 -18.043922 175.88042 -0.84423584 -98.002792 -0.84001797 -98.023422 -17.819912 161.48555
14850000000 -17.977869 175.25426 -0.84506088 -98.571846 -0.84242904 -98.595139 -17.749971 161.06538
14860000000 -17.917833 174.61815 -0.84662849 -99.132896 -0.84335589 -99.163246 -17.69121 160.58029
14870000000 -17.849522 173.99887 -0.84846473 -99.705795 -0.84540492 -99.72744 -17.642054 160.05975
14880000000 -17.792559 173.43196 -0.84942096 -100.2717 -0.84629756 -100.30105 -17.591688 159.56801
14890000000 -17.728666 172.88034 -0.85147786 -100.84631 -0.84700251 -100.86552 -17.551847 159.10628
14900000000 -17.673641 172.31903 -0.8529079 -101.41336 -0.8485195 -101.44012 -17.495058 158.60915
14910000000 -17.619946 171.67596 -0.85461193 -101.97816 -0.85101813 -102.00687 -17.445015 157.98506
14920000000 -17.567537 171.13832 -0.85702419 -102.54449 -0.8522886 -102.57587 -17.397999 157.34853
14930000000 -17.506521 170.62732 -0.85809958 -103.11909 -0.85297686 -103.1419 -17.351103 156.73006
14940000000 -17.449772 170.0313 -0.85921752 -103.68719 -0.85497373 -103.71193 -17.296743 156.11018
14950000000 -17.398125 169.3931 -0.86196697 -104.25065 -0.85715061 -104.27615 -17.239531 155.51498
14960000000 -17.33527 168.82652 -0.86376268 -104.82367 -0.85779428 -104.85137 -17.168455 154.97318
14970000000 -17.27231 168.2662 -0.8647576 -105.39404 -0.86146849 -105.41548 -17.109716 154.37975
14980000000 -17.210907 167.7135 -0.86633956 -105.96307 -0.86246669 -105.98955 -17.051889 153.77223
14990000000 -17.152042 167.18419 -0.86685818 -106.53097 -0.86401594 -106.55999 -16.990639 153.25093
15000000000 -17.089863 166.67758 -0.86871123 -107.10019 -0.86551678 -107.12842 -16.932755 152.75154
15010000000 -17.026043 166.13925 -0.87093675 -107.67191 -0.86625016 -107.69938 -16.87583 152.23257
15020000000 -16.966446 165.58665 -0.87279755 -108.23823 -0.86824584 -108.26871 -16.828154 151.69942
15030000000 -16.911983 165.0741 -0.87435079 -108.81099 -0.87026966 -108.83445 -16.770153 151.14253
15040000000 -16.866543 164.48401 -0.87540138 -109.37568 -0.87218714 -109.4035 -16.720638 150.58438
15050000000 -16.818756 163.94205 -0.87699705 -109.95 -0.87366384 -109.98001 -16.678173 150.05333
15060000000 -16.779861 163.32111 -0.87810344 -110.51933 -0.87505466 -110.54223 -16.630629 149.54556
15070000000 -16.729166 162.73738 -0.88103193 -111.09068 -0.87569398 -111.11613 -16.57571 149.04825
15080000000 -16.672152 162.14696 -0.88214087 -111.66971 -0.878573 -111.68633 -16.514402 148.50771
15090000000 -16.622232 161.54411 -0.88410234 -112.23853 -0.87989628 -112.25617 -16.455423 147.97238
15100000000 -16.563892 160.92722 -0.8853181 -112.79708 -0.88157892 -112.82752 -16.399309 147.41992
15110000000 -16.508047 160.34608 -0.8875255 -113.37066 -0.88352931 -113.3965 -16.346521 146.91663
15120000000 -16.449261 159.77132 -0.88935626 -113.94081 -0.88552123 -113.96851 -16.2945 146.38237
15130000000 -16.402246 159.20291 -0.89109844 -114.50665 -0.88690186 -114.53172 -16.256193 145.83139
15140000000 -16.347378 158.58684 -0.89278477 -115.07321 -0.88954937 -115.10788 -16.202093 145.32907
15150000000 -16.293955 158.04617 -0.89455801 -115.64439 -0.89113599 -115.67239 -16.1654 144.82668
15160000000 -16.246227 157.53845 -0.89514261 -116.21454 -0.89145696 -116.23578 -16.122004 144.3687
15170000000 -16.208267 157.02966 -0.8958053 -116.77888 -0.89254856 -116.80554 -16.089224 143.86197
15180000000 -16.158289 156.50879 -0.89743906 -117.35387 -0.89368689 -117.37908 -16.0515 143.39063
15190000000 -16.123867 155.95036 -0.8981753 -117.91983 -0.8951382 -117.94779 -16.015188 142.88393
15200000000 -16.08091 155.37428 -0.90001947 -118.49747 -0.89658076 -118.52217 -15.974459 142.35526
15210000000 -16.047472 154.84724 -0.90174401 -119.06344 -0.89797062 -119.09222 -15.944375 141.75291
15220000000 -16.006248 154.21477 -0.9035731 -119.63313 -0.90043926 -119.66024 -15.900631 141.08694
15230000000 -15.963798 153.61398 -0.9050867 -120.20135 -0.90247649 -120.2301 -15.866631 140.4771
15240000000 -15.920963 153.05469 -0.90714598 -120.76823 -0.90370923 -120.7969 -15.820141 139.88649
15250000000 -15.867382 152.49001 -0.90815151 -121.34032 -0.90585452 -121.36402 -15.774214 139.35991
15260000000 -15.808423 151.90057 -0.91041172 -121.90965 -0.90748221 -121.93729 -15.719982 138.78989
15270000000 -15.765466 151.40073 -0.91217679 -122.47652 -0.90903002 -122.50758 -15.67201 138.2252
15280000000 -15.704788 150.85208 -0.91463083 -123.04517 -0.911367 -123.07052 -15.62365 137.72148
15290000000 -15.649512 150.35672 -0.91650021 -123.61603 -0.91284722 -123.64528 -15.576782 137.18578
15300000000 -15.60382 149.83925 -0.91794097 -124.18951 -0.91454232 -124.21098 -15.536098 136.71339
15310000000 -15.557425 149.29576 -0.91948837 -124.75308 -0.91602141 -124.78108 -15.48656 136.21504
15320000000 -15.517486 148.77936 -0.92144656 -125.32403 -0.91898453 -125.36146 -15.442546 135.6855
15330000000 -15.490851 148.22597 -0.92337459 -125.88889 -0.9199369 -125.91615 -15.41236 135.15126
15340000000 -15.452087 147.61594 -0.92479485 -126.45866 -0.92224997 -126.4836 -15.365963 134.57579
15350000000 -15.420687 147.03769 -0.92695159 -127.02332 -0.92458862 -127.05347 -15.330132 134.06618
15360000000 -15.378227 146.4884 -0.92906839 -127.60416 -0.92470521 -127.62525 -15.297799 133.59143
15370000000 -15.340358 145.91104 -0.92873496 -128.16602 -0.9268446 -128.18919 -15.266074 133.06236
15380000000 -15.300322 145.30359 -0.93104565 -128.73375 -0.92830414 -128.76045 -15.228088 132.58846
15390000000 -15.254292 144.72998 -0.93293983 -129.29958 -0.92985201 -129.32497 -15.190859 132.05423
15400000000 -15.213822 144.16559 -0.93421936 -129.86542 -0.93130231 -129.89468 -15.157441 131.47691
15410000000 -15.158827 143.65576 -0.93723929 -130.43834 -0.93284357 -130.46429 -15.125249 130.92679
15420000000 -15.109128 143.15923 -0.93856674 -131.0058 -0.93518436 -131.03755 -15.088136 130.3577
15430000000 -15.070938 142.63818 -0.94053811 -131.57689 -0.93647039 -131.59811 -15.048862 129.79597
15440000000 -15.025298 142.20468 -0.94318706 -132.14568 -0.93803698 -132.17587 -15.009728 129.17946
15450000000 -14.98971 141.69174 -0.94416946 -132.71033 -0.93944335 -132.73801 -14.976122 128.59142
15460000000 -14.956767 141.15857 -0.94563937 -133.28262 -0.94226724 -133.30612 -14.943566 128.02446
15470000000 -14.921274 140.65868 -0.94800478 -133.84882 -0.94337487 -133.87379 -14.906303 127.47993
15480000000 -14.897568 140.15871 -0.94785929 -134.4156 -0.94425118 -134.44574 -14.868999 126.9574
15490000000 -14.874669 139.63316 -0.94895357 -134.98486 -0.94698352 -135.01456 -14.827451 126.43279
15500000000 -14.836855 139.09451 -0.95119965 -135.55751 -0.94838482 -135.57697 -14.788325 125.85184
15510000000 -14.812951 138.50523 -0.95240563 -136.11911 -0.95013893 -136.14314 -14.750305 125.27179
15520000000 -14.78369 137.94437 -0.95523149 -136.68665 -0.95085227 -136.71233 -14.712148 124.7173
15530000000 -14.745996 137.37854 -0.95745182 -137.26125 -0.95292109 -137.28856 -14.681042 124.19019
15540000000 -14.712554 136.79494 -0.95862532 -137.83104 -0.95462132 -137.85115 -14.643597 123.71434
15550000000 -14.680302 136.21227 -0.95970231 -138.39445 -0.95624697 -138.42134 -14.609966 123.25731
15560000000 -14.6473 135.64885 -0.9610166 -138.96754 -0.95786619 -138.99454 -14.574557 122.75941
15570000000 -14.615322 135.08952 -0.96251869 -139.54111 -0.9591735 -139.56245 -14.54716 122.30033
15580000000 -14.587484 134.56288 -0.96370262 -140.10596 -0.9602322 -140.1295 -14.516788 121.84433
15590000000 -14.560268 133.97708 -0.96421427 -140.68028 -0.96161741 -140.70023 -14.492509 121.44889
15600000000 -14.542246 133.39082 -0.96623576 -141.24338 -0.96283209 -141.26485 -14.465299 120.92692
15610000000 -14.518698 132.81868 -0.96718687 -141.8102 -0.96432865 -141.83444 -14.441415 120.45935
15620000000 -14.495708 132.18677 -0.96984923 -142.38225 -0.96576303 -142.40448 -14.412334 119.89377
15630000000 -14.466447 131.62651 -0.97169751 -142.94469 -0.96903437 -142.97594 -14.385774 119.34026
15640000000 -14.44311 130.99437 -0.97325319 -143.52086 -0.97006541 -143.53859 -14.368981 118.76912
15650000000 -14.413566 130.41776 -0.97497791 -144.08577 -0.97170985 -144.10652 -14.348781 118.2516
15660000000 -14.378844 129.83475 -0.97686857 -144.65547 -0.97342616 -144.6723 -14.316374 117.66819
15670000000 -14.339215 129.32922 -0.97806358 -145.22528 -0.97394311 -145.25035 -14.290077 117.13898
15680000000 -14.303451 128.77953 -0.97882694 -145.79602 -0.9756642 -145.81804 -14.259871 116.59898
15690000000 -14.269617 128.3203 -0.97985572 -146.3672 -0.97570312 -146.38718 -14.236544 116.04576
15700000000 -14.230156 127.7709 -0.98197895 -146.94089 -0.97739929 -146.95575 -14.211567 115.49362
15710000000 -14.204185 127.29995 -0.98324871 -147.50943 -0.97943014 -147.52191 -14.178166 114.95518
15720000000 -14.176332 126.78207 -0.98466241 -148.07645 -0.98091006 -148.10272 -14.144681 114.4466
15730000000 -14.150283 126.25209 -0.9869709 -148.64383 -0.98272938 -148.66978 -14.109944 113.9227
15740000000 -14.121889 125.68286 -0.98899817 -149.2177 -0.98497874 -149.23698 -14.079411 113.38918
15750000000 -14.100814 125.11864 -0.99030119 -149.78175 -0.98649108 -149.79729 -14.048216 112.82206
15760000000 -14.075608 124.56564 -0.99215531 -150.34659 -0.98849434 -150.36429 -14.026073 112.26345
15770000000 -14.053595 123.99028 -0.99445122 -150.9146 -0.99201351 -150.93842 -13.996428 111.74329
15780000000 -14.028133 123.47224 -0.99560845 -151.48648 -0.99311864 -151.49989 -13.975963 111.18681
15790000000 -14.000472 122.92201 -0.9975062 -152.04886 -0.9938277 -152.06816 -13.951288 110.61887
15800000000 -13.964767 122.42126 -1.0001872 -152.61978 -0.99602419 -152.63835 -13.931532 110.08261
15810000000 -13.938324 121.9244 -1.0007041 -153.18787 -0.99693948 -153.20268 -13.909845 109.48826
15820000000 -13.910845 121.47073 -1.0016834 -153.76079 -0.9978596 -153.77855 -13.884403 108.95627
15830000000 -13.881564 120.95749 -1.002099 -154.32236 -0.99941683 -154.35823 -13.861315 108.43523
15840000000 -13.861865 120.42825 -1.0046977 -154.89536 -1.0014457 -154.9207 -13.831027 107.83146
15850000000 -13.843775 119.87925 -1.0064721 -155.45717 -1.0027039 -155.48218 -13.803144 107.27585
15860000000 -13.82746 119.33985 -1.0087001 -156.0244 -1.0048102 -156.04538 -13.769706 106.6637
15870000000 -13.809558 118.81092 -1.0103567 -156.60066 -1.0071014 -156.61612 -13.738044 106.12575
15880000000 -13.796132 118.23424 -1.0112845 -157.16516 -1.0080478 -157.18597 -13.715188 105.61594
15890000000 -13.786699 117.63062 -1.0126312 -157.72385 -1.0095127 -157.75449 -13.687604 105.13343
15900000000 -13.763875 117.0335 -1.0141944 -158.30238 -1.0102688 -158.32306 -13.663461 104.65173
15910000000 -13.742106 116.42371 -1.0149513 -158.86549 -1.0127809 -158.88812 -13.636806 104.19284
15920000000 -13.721785 115.82726 -1.0163593 -159.43149 -1.0126646 -159.45399 -13.614066 103.70949
15930000000 -13.691599 115.21393 -1.017616 -159.99554 -1.0138508 -160.02617 -13.600533 103.22553
15940000000 -13.670936 114.60484 -1.0181841 -160.57082 -1.0154402 -160.5912 -13.58726 102.78472
15950000000 -13.641993 114.06931 -1.0198979 -161.13657 -1.0174825 -161.15791 -13.565429 102.27162
15960000000 -13.616641 113.50388 -1.0224421 -161.70396 -1.0184132 -161.73286 -13.544194 101.76887
15970000000 -13.592929 112.95291 -1.0239499 -162.27231 -1.0207989 -162.2921 -13.519629 101.19037
15980000000 -13.578384 112.43092 -1.026195 -162.84261 -1.0219635 -162.87103 -13.500015 100.65847
15990000000 -13.559411 111.92844 -1.0285081 -163.41264 -1.0237683 -163.43474 -13.484894 100.08279
16000000000 -13.546827 111.36081 -1.0287288 -163.97617 -1.0252988 -164.00029 -13.46431 99.55452
16010000000 -13.524571 110.83251 -1.0300727 -164.55289 -1.0276086 -164.57336 -13.44423 99.0382
16020000000 -13.509316 110.24751 -1.0320998 -165.12262 -1.0287416 -165.14439 -13.421247 98.518547
16030000000 -13.494487 109.6909 -1.0327007 -165.69617 -1.0295546 -165.71114 -13.403904 97.974869
16040000000 -13.476731 109.12476 -1.0343424 -166.26183 -1.0307403 -166.27376 -13.381717 97.443069
16050000000 -13.459249 108.52784 -1.0361862 -166.82962 -1.0322256 -166.84695 -13.358459 96.877342
16060000000 -13.435427 107.96049 -1.0379006 -167.40045 -1.034035 -167.41794 -13.333481 96.34977
16070000000 -13.417235 107.37175 -1.0389122 -167.96208 -1.0348345 -167.98593 -13.313392 95.862198
16080000000 -13.392531 106.82475 -1.0403215 -168.53741 -1.0364451 -168.55946 -13.292894 95.358299
16090000000 -13.371781 106.27397 -1.0418377 -169.09499 -1.0376146 -169.11917 -13.278339 94.809799
16100000000 -13.351281 105.75926 -1.0429155 -169.66603 -1.0396231 -169.68877 -13.261393 94.299408
16110000000 -13.3346 105.25597 -1.0446104 -170.2314 -1.0405382 -170.26096 -13.252578 93.792198
16120000000 -13.32554 104.75139 -1.0458225 -170.8055 -1.0413905 -170.82924 -13.241011 93.280769
16130000000 -13.319426 104.24721 -1.0464668 -171.38144 -1.0422901 -171.39883 -13.230239 92.756836
16140000000 -13.311845 103.73244 -1.0486159 -171.95268 -1.0440434 -171.97676 -13.210054 92.205147
16150000000 -13.30475 103.22473 -1.0497932 -172.52118 -1.0462826 -172.54451 -13.192603 91.611092
16160000000 -13.292622 102.62874 -1.0518751 -173.08853 -1.0470788 -173.11005 -13.176272 91.039314
16170000000 -13.280014 101.99352 -1.0545288 -173.65891 -1.048815 -173.67445 -13.163303 90.491943
16180000000 -13.25956 101.40765 -1.0552173 -174.22189 -1.0502399 -174.24413 -13.147809 89.906532
16190000000 -13.24645 100.81467 -1.0561122 -174.79221 -1.0517758 -174.81761 -13.127541 89.371552
16200000000 -13.225501 100.24517 -1.0563911 -175.36124 -1.0529019 -175.38397 -13.107004 88.83728
16210000000 -13.202165 99.674164 -1.0570098 -175.92688 -1.0530926 -175.95007 -13.087415 88.286194
16220000000 -13.174569 99.124054 -1.0585115 -176.49687 -1.0546126 -176.51662 -13.069603 87.763817
16230000000 -13.158754 98.607338 -1.059738 -177.069 -1.0552117 -177.08308 -13.049521 87.225693
16240000000 -13.130284 98.078148 -1.0626463 -177.63409 -1.0587689 -177.65318 -13.033371 86.691689
16250000000 -13.116003 97.580063 -1.0649761 -178.19777 -1.0599968 -178.21332 -13.00876 86.138199
16260000000 -13.105808 97.065216 -1.0654376 -178.76363 -1.0617038 -178.78345 -12.988563 85.593071
16270000000 -13.09114 96.543793 -1.0672199 -179.33063 -1.0634738 -179.35208 -12.970276 85.028732
16280000000 -13.080353 96.014893 -1.0687479 -179.89142 -1.0646093 -179.92256 -12.954445 84.478371
16290000000 -13.074437 95.442764 -1.0698988 179.53432 -1.0658326 179.51385 -12.934838 83.974747
16300000000 -13.062941 94.848701 -1.0719135 178.96983 -1.0681903 178.9462 -12.915652 83.458984
16310000000 -13.054164 94.268356 -1.0721818 178.40469 -1.069528 178.38002 -12.896937 82.955261
16320000000 -13.041592 93.653954 -1.0734411 177.83768 -1.0702475 177.81819 -12.881452 82.483971
16330000000 -13.021692 93.090027 -1.0737265 177.2742 -1.0707424 177.24878 -12.872884 81.947594
16340000000 -13.009686 92.535736 -1.0745549 176.70493 -1.0716166 176.68433 -12.860902 81.473015
16350000000 -12.992627 92.002594 -1.0760249 176.14586 -1.0724529 176.11925 -12.856536 80.950584
16360000000 -12.978828 91.476517 -1.0769111 175.57275 -1.0734216 175.5515 -12.847294 80.445435
16370000000 -12.96643 90.987183 -1.078261 175.01166 -1.0753603 174.97949 -12.840169 79.900223
16380000000 -12.956433 90.515755 -1.0812706 174.44351 -1.0767529 174.41942 -12.834823 79.322739
16390000000 -12.951435 90.078819 -1.0829498 173.87648 -1.0793164 173.84938 -12.823649 78.693817
16400000000 -12.944263 89.587921 -1.0822523 173.30699 -1.0792031 173.27686 -12.823696 78.076218
16410000000 -12.945937 89.05452 -1.0837457 172.7397 -1.0792811 172.71654 -12.821859 77.465012
16420000000 -12.946241 88.537346 -1.0840008 172.17603 -1.0808742 172.14174 -12.812255 76.899635
16430000000 -12.947794 88.012077 -1.0856053 171.59984 -1.0810535 171.57951 -12.795294 76.31353
16440000000 -12.946698 87.433426 -1.08489 171.03581 -1.0816133 171.00415 -12.782463 75.778976
16450000000 -12.946307 86.846573 -1.0870084 170.4731 -1.083373 170.44753 -12.757028 75.209213
16460000000 -12.936016 86.226372 -1.0885451 169.90091 -1.0837849 169.87138 -12.744588 74.678902
16470000000 -12.929604 85.608742 -1.0898796 169.33626 -1.0861278 169.3085 -12.722941 74.169594
16480000000 -12.907648 84.975975 -1.0917655 168.76901 -1.0879505 168.73747 -12.714285 73.699951
16490000000 -12.893906 84.401588 -1.0933528 168.19862 -1.0883173 168.17352 -12.702674 73.20266
16500000000 -12.88218 83.839211 -1.0936508 167.63193 -1.0904649 167.60954 -12.691738 72.708023
16510000000 -12.873188 83.345116 -1.0939691 167.06195 -1.0909255 167.02957 -12.689513 72.181053
16520000000 -12.866206 82.817085 -1.0955862 166.49309 -1.0913038 166.45717 -12.686708 71.652527
16530000000 -12.862184 82.299889 -1.0960519 165.92342 -1.0918185 165.89624 -12.687062 71.126404
16540000000 -12.861509 81.759644 -1.0970579 165.35199 -1.0921699 165.33086 -12.681586 70.549698
16550000000 -12.861017 81.19825 -1.0986089 164.78081 -1.0934087 164.75784 -12.677483 69.998642
16560000000 -12.856018 80.659599 -1.0996103 164.20638 -1.0958034 164.18568 -12.669482 69.3918
16570000000 -12.85214 80.054634 -1.1001599 163.63948 -1.0966917 163.61383 -12.659656 68.830078
16580000000 -12.847874 79.473938 -1.1018524 163.06946 -1.0977548 163.0464 -12.649684 68.226814
16590000000 -12.838501 78.856209 -1.1032822 162.502 -1.09938 162.47879 -12.63959 67.682274
16600000000 -12.825826 78.250061 -1.1047184 161.93648 -1.1002966 161.91496 -12.625354 67.145432
16610000000 -12.816803 77.677063 -1.1045432 161.36798 -1.1011772 161.34418 -12.610676 66.622093
16620000000 -12.804794 77.125763 -1.1054823 160.79199 -1.1017499 160.7751 -12.599086 66.097961
16630000000 -12.790596 76.576263 -1.1061144 160.22809 -1.1010604 160.20853 -12.595705 65.567093
16640000000 -12.781094 76.072601 -1.1065452 159.65897 -1.1019999 159.63892 -12.593246 65.01844
16650000000 -12.774846 75.584297 -1.1072931 159.0947 -1.1027333 159.07266 -12.591032 64.499336
16660000000 -12.773637 75.084595 -1.1076331 158.52248 -1.1032138 158.49786 -12.590397 63.973507
16670000000 -12.775988 74.606537 -1.1092032 157.96129 -1.1043752 157.93208 -12.578829 63.420532
16680000000 -12.777406 74.100441 -1.1092138 157.38586 -1.1053915 157.36467 -12.576557 62.848152
16690000000 -12.775377 73.582901 -1.1114485 156.82028 -1.1071167 156.79355 -12.574704 62.242039
16700000000 -12.773521 73.002777 -1.1125978 156.25548 -1.1078994 156.23009 -12.577311 61.656467
16710000000 -12.772786 72.470215 -1.1122233 155.67754 -1.1085272 155.6566 -12.577558 61.057602
16720000000 -12.766994 71.903801 -1.1136504 155.11888 -1.1093459 155.09335 -12.575109 60.505901
16730000000 -12.767806 71.34449 -1.1124593 154.55266 -1.1096988 154.5226 -12.564517 59.946365
16740000000 -12.760216 70.785751 -1.1135377 153.98232 -1.1087207 153.95882 -12.569669 59.391537
16750000000 -12.754271 70.279213 -1.1128416 153.41992 -1.1092818 153.38824 -12.563479 58.782089
16760000000 -12.753522 69.769745 -1.1133745 152.83742 -1.1089466 152.81955 -12.559035 58.249874
16770000000 -12.748075 69.208351 -1.1138997 152.28029 -1.1092446 152.25667 -12.557563 57.736572
16780000000 -12.742273 68.683434 -1.1149135 151.70758 -1.1107156 151.68707 -12.55442 57.202301
16790000000 -12.745295 68.124641 -1.1158599 151.14189 -1.1112459 151.12053 -12.549181 56.662777
16800000000 -12.744234 67.596565 -1.1169137 150.5782 -1.1126282 150.55113 -12.549169 56.10878
16810000000 -12.742565 67.021896 -1.1191663 150.00575 -1.1140194 149.98419 -12.555625 55.598911
16820000000 -12.749063 66.464546 -1.1203601 149.4431 -1.1155634 149.41385 -12.553082 55.060284
16830000000 -12.752421 65.90995 -1.1206242 148.87021 -1.1162307 148.84644 -12.555737 54.529152
16840000000 -12.757797 65.361107 -1.1203732 148.30055 -1.1165497 148.27139 -12.558123 53.980759
16850000000 -12.75557 64.779892 -1.1189342 147.73767 -1.1150714 147.70929 -12.564385 53.42585
16860000000 -12.756355 64.241638 -1.1203601 147.16 -1.1163309 147.14912 -12.56665 52.839279
16870000000 -12.753657 63.700367 -1.11966 146.59074 -1.115995 146.57523 -12.571377 52.257553
16880000000 -12.751384 63.138237 -1.1204942 146.02983 -1.1162204 146.00845 -12.570168 51.68475
16890000000 -12.748748 62.602993 -1.1213688 145.4538 -1.117087 145.4295 -12.571859 51.137207
16900000000 -12.742896 62.068134 -1.1213939 144.88153 -1.1183892 144.86211 -12.573011 50.58271
16910000000 -12.74409 61.518887 -1.1217837 144.31589 -1.1183819 144.28506 -12.568308 50.031391
16920000000 -12.741776 60.996254 -1.1226579 143.74565 -1.1192353 143.71555 -12.563251 49.450207
16930000000 -12.742318 60.4552 -1.1238461 143.17601 -1.1198275 143.15143 -12.569746 48.900673
16940000000 -12.742165 59.910069 -1.1248223 142.60748 -1.1209857 142.58405 -12.577242 48.387108
16950000000 -12.748245 59.381161 -1.1238816 142.04268 -1.120768 142.02307 -12.582819 47.861801
16960000000 -12.754504 58.851444 -1.1228026 141.47917 -1.1205548 141.44746 -12.5846 47.316105
16970000000 -12.759353 58.292545 -1.1226263 140.90511 -1.1203514 140.88181 -12.586033 46.77702
16980000000 -12.758617 57.761326 -1.1238695 140.3315 -1.1207619 140.31779 -12.595486 46.180424
16990000000 -12.757136 57.20681 -1.1253479 139.76596 -1.1203816 139.74707 -12.599968 45.606285
17000000000 -12.753695 56.673428 -1.1254274 139.19373 -1.1217451 139.17009 -12.605653 45.029762
17010000000 -12.746111 56.138622 -1.1263646 138.62616 -1.1216989 138.59103 -12.612445 44.449062
17020000000 -12.740956 55.646832 -1.1264861 138.05156 -1.1223475 138.01723 -12.61115 43.876175
17030000000 -12.734982 55.139492 -1.1261808 137.47672 -1.1231681 137.44923 -12.612881 43.317894
17040000000 -12.735751 54.640358 -1.1264367 136.9117 -1.1224376 136.88449 -12.615087 42.727829
17050000000 -12.735373 54.130714 -1.1245073 136.34306 -1.1222432 136.3179 -12.623017 42.172367
17060000000 -12.737482 53.647217 -1.1252693 135.77388 -1.1223199 135.75116 -12.625388 41.656517
17070000000 -12.743284 53.143505 -1.1248863 135.20822 -1.1219673 135.18275 -12.631005 41.154682
17080000000 -12.754437 52.657398 -1.1249158 134.63564 -1.1221333 134.61726 -12.636725 40.646099
17090000000 -12.764671 52.156677 -1.1250185 134.07326 -1.1214988 134.04498 -12.649282 40.103249
17100000000 -12.775228 51.645149 -1.127189 133.49829 -1.1220779 133.4736 -12.65883 39.61647
17110000000 -12.790483 51.117599 -1.1268783 132.92665 -1.1228416 132.89406 -12.672129 39.069935
17120000000 -12.800112 50.581215 -1.1274488 132.35553 -1.1231043 132.32556 -12.686917 38.523247
17130000000 -12.811682 50.029324 -1.1268853 131.78003 -1.1236961 131.74797 -12.709159 37.972878
17140000000 -12.822543 49.514786 -1.1262304 131.20847 -1.1224949 131.17368 -12.724596 37.37011
17150000000 -12.825368 48.954407 -1.1254135 130.64186 -1.1212746 130.6039 -12.743747 36.760506
17160000000 -12.829992 48.36412 -1.1241481 130.0661 -1.1212059 130.0421 -12.763438 36.158302
17170000000 -12.836199 47.851959 -1.1241673 129.48865 -1.1213329 129.4567 -12.776827 35.556328
17180000000 -12.839206 47.332294 -1.1231343 128.91985 -1.1200734 128.88995 -12.786018 34.947796
17190000000 -12.846331 46.796032 -1.1244694 128.33838 -1.1204835 128.31413 -12.786123 34.385288
17200000000 -12.85403 46.287491 -1.1252586 127.76736 -1.1206373 127.73674 -12.783453 33.804245
17210000000 -12.855427 45.751923 -1.1256497 127.19655 -1.1215649 127.16616 -12.779017 33.237484
17220000000 -12.857248 45.239433 -1.1264589 126.62569 -1.1222824 126.59846 -12.780162 32.682751
17230000000 -12.864449 44.75034 -1.1274303 126.05058 -1.1237051 126.02531 -12.789151 32.160717
17240000000 -12.8693 44.244156 -1.1272954 125.47678 -1.1226786 125.45825 -12.796922 31.638882
17250000000 -12.880772 43.763187 -1.1259731 124.91589 -1.1228999 124.88638 -12.805991 31.089577
17260000000 -12.890396 43.231731 -1.1240821 124.34597 -1.1218809 124.32208 -12.822919 30.555651
17270000000 -12.899325 42.722572 -1.1231335 123.77779 -1.1209317 123.75449 -12.841409 30.026606
17280000000 -12.909614 42.214325 -1.1235597 123.20251 -1.1209224 123.18537 -12.859817 29.491306
17290000000 -12.923217 41.700333 -1.1237806 122.64301 -1.1201799 122.61198 -12.879833 28.981794
17300000000 -12.936028 41.178047 -1.1224285 122.06271 -1.120597 122.03178 -12.898208 28.469078
17310000000 -12.940949 40.626118 -1.1241981 121.4918 -1.121166 121.46326 -12.910484 27.928999
17320000000 -12.948802 40.130859 -1.1243349 120.91484 -1.1215373 120.88498 -12.92629 27.335226
17330000000 -12.959124 39.648178 -1.1252717 120.33818 -1.1217897 120.31089 -12.940513 26.773603
17340000000 -12.966035 39.151726 -1.1242062 119.76788 -1.1217092 119.7382 -12.95718 26.177359
17350000000 -12.978916 38.689285 -1.1239249 119.18754 -1.1212277 119.16695 -12.969039 25.59239
17360000000 -12.993211 38.207623 -1.1226692 118.62629 -1.1194988 118.59351 -12.984496 24.996592
17370000000 -13.009059 37.731045 -1.1222837 118.05398 -1.1184953 118.02325 -12.99571 24.422386
17380000000 -13.014863 37.243965 -1.1211201 117.4882 -1.1179606 117.45712 -13.008904 23.857546
17390000000 -13.029828 36.742874 -1.1204952 116.91769 -1.1179117 116.87877 -13.023655 23.27631
17400000000 -13.053387 36.218739 -1.1205742 116.33836 -1.1177884 116.30121 -13.036885 22.759689
17410000000 -13.071516 35.665962 -1.1198727 115.77052 -1.1159726 115.73592 -13.047006 22.272053
17420000000 -13.083985 35.170021 -1.1200771 115.19262 -1.1166588 115.15476 -13.066931 21.76815
17430000000 -13.100474 34.642288 -1.1194751 114.61316 -1.1167971 114.58125 -13.088937 21.270819
17440000000 -13.11226 34.141853 -1.1195441 114.03453 -1.1169524 114.01566 -13.110531 20.730764
17450000000 -13.130549 33.624111 -1.1182697 113.46667 -1.1149127 113.43146 -13.142312 20.177326
17460000000 -13.140126 33.163425 -1.1177684 112.88987 -1.1151199 112.86877 -13.169144 19.596155
17470000000 -13.157648 32.681271 -1.1174935 112.31659 -1.1138749 112.28988 -13.20103 19.059277
17480000000 -13.17941 32.204006 -1.1170566 111.743 -1.1136073 111.71407 -13.228022 18.440229
17490000000 -13.198411 31.70443 -1.115958 111.17267 -1.1123333 111.13485 -13.247874 17.868261
17500000000 -13.225821 31.24567 -1.1145829 110.58334 -1.1120436 110.56165 -13.270682 17.245762
17510000000 -13.24403 30.732624 -1.1150985 110.00921 -1.112749 109.98114 -13.289014 16.62373
17520000000 -13.268242 30.243139 -1.1156708 109.42274 -1.1126229 109.39433 -13.303356 16.035118
17530000000 -13.284927 29.717026 -1.1154546 108.84653 -1.1125417 108.81355 -13.321609 15.463369
17540000000 -13.304489 29.171875 -1.1153384 108.25684 -1.1126102 108.22877 -13.336968 14.91496
17550000000 -13.312624 28.604074 -1.1156158 107.68839 -1.1126667 107.6516 -13.348534 14.352446
17560000000 -13.324097 28.101578 -1.1148198 107.10656 -1.1121423 107.0747 -13.372772 13.753575
17570000000 -13.33921 27.592972 -1.114897 106.53004 -1.1128794 106.49875 -13.388233 13.246786
17580000000 -13.349942 27.071123 -1.1136123 105.95094 -1.1108828 105.92039 -13.413208 12.714713
17590000000 -13.364073 26.57185 -1.1134036 105.36309 -1.1111495 105.33504 -13.438916 12.197576
17600000000 -13.386496 26.101192 -1.1132152 104.78603 -1.1104151 104.75481 -13.459144 11.678844
17610000000 -13.398467 25.662388 -1.1123596 104.20329 -1.1099261 104.18037 -13.477015 11.132179
17620000000 -13.420206 25.236368 -1.1116675 103.62195 -1.109766 103.59978 -13.502878 10.575094
17630000000 -13.446985 24.795843 -1.1121925 103.04458 -1.1100321 103.01545 -13.530592 9.9863377
17640000000 -13.468228 24.369419 -1.1118628 102.4624 -1.1089429 102.42988 -13.556511 9.4329491
17650000000 -13.497011 23.902748 -1.1114341 101.88129 -1.1091691 101.85081 -13.581231 8.8623152
17660000000 -13.521319 23.473932 -1.1107681 101.30526 -1.1085947 101.27467 -13.619234 8.2411795
17670000000 -13.541256 22.993744 -1.1107223 100.7387 -1.1078292 100.69964 -13.645553 7.6282549
17680000000 -13.564337 22.498806 -1.1105819 100.15308 -1.1069013 100.12676 -13.677458 7.0498776
17690000000 -13.585634 22.031631 -1.1092172 99.579391 -1.1057228 99.55117 -13.709599 6.4667397
17700000000 -13.624594 21.543476 -1.1079348 98.999771 -1.1053007 98.973633 -13.73869 5.9321451
17710000000 -13.65053 21.056049 -1.1066892 98.41188 -1.1035929 98.390785 -13.774044 5.4046931
17720000000 -13.686719 20.57222 -1.1058826 97.835541 -1.1026702 97.803162 -13.804274 4.9275632
17730000000 -13.719613 20.147797 -1.1055434 97.2491 -1.102262 97.213188 -13.8335 4.4420447
17740000000 -13.749142 19.700438 -1.1051338 96.668526 -1.1007422 96.631454 -13.867874 3.8784401
17750000000 -13.780431 19.239435 -1.1041462 96.087128 -1.1013293 96.055191 -13.910875 3.3169007
17760000000 -13.818139 18.81381 -1.1040331 95.505325 -1.1010294 95.473099 -13.948773 2.737777
17770000000 -13.857748 18.335922 -1.1022644 94.927124 -1.0989999 94.902321 -13.988073 2.2078695
17780000000 -13.900463 17.808704 -1.1015531 94.343185 -1.0979007 94.316963 -14.027743 1.6253266
17790000000 -13.923431 17.240694 -1.1004814 93.766304 -1.0976895 93.734154 -14.061218 1.0052534
17800000000 -13.955261 16.712595 -1.0995717 93.183411 -1.096781 93.150612 -14.093287 0.40871197
17810000000 -13.97979 16.20541 -1.0997274 92.600342 -1.0957714 92.575043 -14.126879 -0.16479531
17820000000 -13.999251 15.668173 -1.0991943 92.013519 -1.0960503 91.991745 -14.153562 -0.69084793
17830000000 -14.017282 15.157672 -1.0991919 91.426399 -1.0958225 91.403114 -14.182955 -1.2025825
17840000000 -14.037272 14.658725 -1.0990769 90.839966 -1.0958451 90.80838 -14.204454 -1.727841
17850000000 -14.057669 14.189036 -1.0988828 90.250328 -1.0961449 90.222343 -14.234265 -2.2562566
17860000000 -14.0803 13.732818 -1.0982314 89.675644 -1.095234 89.643929 -14.261404 -2.7829051
17870000000 -14.11163 13.252711 -1.0975305 89.088608 -1.0937946 89.053467 -14.295963 -3.3138258
17880000000 -14.151658 12.818847 -1.0962739 88.506477 -1.093789 88.476494 -14.335796 -3.8621449
17890000000 -14.182765 12.37582 -1.0946869 87.927391 -1.092038 87.89608 -14.371022 -4.4025531
17900000000 -14.212774 11.89271 -1.093425 87.346344 -1.0911041 87.315987 -14.41366 -4.964983
17910000000 -14.246814 11.441113 -1.093125 86.760796 -1.0903504 86.725754 -14.456203 -5.5215597
17920000000 -14.276011 10.984206 -1.0926713 86.171898 -1.0900986 86.14492 -14.494392 -6.1341705
17930000000 -14.305982 10.477021 -1.0935112 85.580635 -1.0905567 85.558762 -14.543013 -6.7208834
17940000000 -14.3237 10.058032 -1.0931067 85.000397 -1.089532 84.965828 -14.585236 -7.3493466
17950000000 -14.333743 9.681242 -1.0926189 84.41481 -1.0891774 84.383049 -14.625278 -8.0092955
17960000000 -14.356985 9.3033113 -1.0922811 83.824196 -1.0892379 83.797287 -14.659763 -8.6429949
17970000000 -14.376785 8.957592 -1.0916892 83.242653 -1.0892972 83.213966 -14.700425 -9.2949514
17980000000 -14.40538 8.6365948 -1.0918161 82.660042 -1.087314 82.633232 -14.737726 -9.9245329
17990000000 -14.447146 8.2920732 -1.0908023 82.07515 -1.0858835 82.047409 -14.775283 -10.513784
18000000000 -14.488295 7.9902711 -1.0889891 81.490852 -1.0853822 81.454369 -14.824043 -11.049017
18010000000 -14.545436 7.6494322 -1.0879325 80.898315 -1.0840334 80.87442 -14.864522 -11.56134
18020000000 -14.604909 7.2854795 -1.0865343 80.316025 -1.0831391 80.288765 -14.91817 -12.088349
18030000000 -14.673861 6.9129472 -1.0842983 79.729477 -1.0826952 79.703926 -14.971177 -12.574009
18040000000 -14.732061 6.4610896 -1.0849874 79.141525 -1.0816561 79.113991 -15.032514 -13.038783
18050000000 -14.795722 5.9563107 -1.0842168 78.550766 -1.0802892 78.523636 -15.101817 -13.54272
18060000000 -14.855602 5.4604888 -1.0835108 77.958473 -1.0792273 77.934013 -15.173667 -14.055271
18070000000 -14.897269 4.9793057 -1.0835321 77.376442 -1.0788636 77.343636 -15.238507 -14.513788
18080000000 -14.943958 4.438427 -1.0813228 76.775635 -1.0782528 76.752518 -15.296149 -15.031819
18090000000 -14.983496 3.9255688 -1.080668 76.185547 -1.0771705 76.156807 -15.360216 -15.648351
18100000000 -15.023754 3.4242718 -1.0797896 75.591255 -1.075936 75.569748 -15.41921 -16.242186
18110000000 -15.055196 2.9695568 -1.0793183 74.993698 -1.0751262 74.974281 -15.475459 -16.827473
18120000000 -15.091247 2.558923 -1.078042 74.412331 -1.0746245 74.376053 -15.529959 -17.37661
18130000000 -15.127564 2.2138531 -1.0777464 73.812248 -1.0749471 73.779442 -15.576707 -17.971466
18140000000 -15.161686 1.8300835 -1.0761237 73.221039 -1.0746292 73.184196 -15.626493 -18.578936
18150000000 -15.199201 1.5398164 -1.0767008 72.620987 -1.0726763 72.592125 -15.681453 -19.146042
18160000000 -15.233095 1.1898235 -1.0756681 72.025162 -1.072443 72.00145 -15.7293 -19.776279
18170000000 -15.284727 0.87776488 -1.0755079 71.429237 -1.0727969 71.405594 -15.790986 -20.364496
18180000000 -15.320742 0.47015315 -1.0748454 70.842766 -1.0711873 70.812462 -15.844346 -20.942289
18190000000 -15.36903 0.12877679 -1.0739549 70.252113 -1.0703019 70.226143 -15.906983 -21.601271
18200000000 -15.4142 -0.28684321 -1.073069 69.665939 -1.0690488 69.639282 -15.970019 -22.272358
18210000000 -15.460225 -0.70634532 -1.0713135 69.07933 -1.0684118 69.045151 -16.035086 -22.882315
18220000000 -15.513055 -1.0887133 -1.0713751 68.484009 -1.0681516 68.454697 -16.098125 -23.437807
18230000000 -15.552817 -1.491214 -1.0703999 67.883553 -1.0664617 67.863663 -16.155817 -23.994925
18240000000 -15.599722 -1.8892633 -1.0713463 67.295242 -1.0666995 67.270248 -16.213943 -24.508907
18250000000 -15.638037 -2.2158213 -1.0696008 66.693047 -1.0659018 66.66523 -16.267202 -25.039129
18260000000 -15.683037 -2.5488856 -1.069464 66.096535 -1.0662575 66.072075 -16.326574 -25.628527
18270000000 -15.720406 -2.9055405 -1.0678155 65.510193 -1.0658736 65.480713 -16.371874 -26.26355
18280000000 -15.761136 -3.2101955 -1.067806 64.913498 -1.0640734 64.89399 -16.427387 -26.787003
18290000000 -15.810933 -3.5235548 -1.066733 64.336998 -1.063377 64.302605 -16.496096 -27.485704
18300000000 -15.862703 -3.8558304 -1.0660573 63.743355 -1.0633905 63.707783 -16.561781 -27.996859
18310000000 -15.905596 -4.1248827 -1.0655369 63.144833 -1.0627792 63.119289 -16.626286 -28.469797
18320000000 -15.962123 -4.4039941 -1.0654058 62.553333 -1.0628262 62.513149 -16.696358 -29.047951
18330000000 -16.017063 -4.711472 -1.0649532 61.955799 -1.0621332 61.925636 -16.778088 -29.528301
18340000000 -16.085169 -5.064785 -1.0651636 61.357098 -1.0608705 61.331631 -16.860853 -30.063242
18350000000 -16.153433 -5.332489 -1.0641065 60.762844 -1.0604244 60.738537 -16.948786 -30.480003
18360000000 -16.216789 -5.6141357 -1.0629349 60.169186 -1.0595778 60.137085 -17.03834 -30.977861
18370000000 -16.27519 -5.8808832 -1.0623262 59.573845 -1.0590099 59.541641 -17.122837 -31.420158
18380000000 -16.340446 -6.1185141 -1.0612301 58.966152 -1.0587288 58.95042 -17.216019 -31.958319
18390000000 -16.411585 -6.479599 -1.0612479 58.378544 -1.0581852 58.343266 -17.308672 -32.504284
18400000000 -16.477268 -6.6918912 -1.0599073 57.781296 -1.056651 57.752987 -17.407778 -33.060242
18410000000 -16.544727 -7.0046535 -1.0594331 57.186577 -1.0551226 57.159386 -17.501436 -33.68911
18420000000 -16.614601 -7.30058 -1.0576185 56.590332 -1.055618 56.564445 -17.598202 -34.23278
18430000000 -16.683649 -7.5987768 -1.0567939 55.993118 -1.0541108 55.971535 -17.692541 -34.827629
18440000000 -16.748837 -7.9130507 -1.0565553 55.400654 -1.0538013 55.36755 -17.77751 -35.421844
18450000000 -16.812788 -8.1548586 -1.0558157 54.798279 -1.0528703 54.771709 -17.872011 -35.993187
18460000000 -16.871122 -8.3829947 -1.0560157 54.198433 -1.0527865 54.165108 -17.970634 -36.549751
18470000000 -16.930595 -8.6045446 -1.0563062 53.592621 -1.0523623 53.564224 -18.063896 -37.270542
18480000000 -16.991915 -8.8219719 -1.0549601 52.995861 -1.0517366 52.966846 -18.152723 -37.870567
18490000000 -17.056965 -8.99788 -1.0532945 52.405472 -1.0515041 52.374016 -18.254713 -38.502201
18500000000 -17.132187 -9.2347488 -1.053507 51.801323 -1.0511236 51.777164 -18.351589 -39.122856
18510000000 -17.198332 -9.4588509 -1.0534508 51.205902 -1.0503395 51.178818 -18.460619 -39.636074
18520000000 -17.274044 -9.7042971 -1.0529177 50.602921 -1.0493002 50.576199 -18.571501 -40.193855
18530000000 -17.346502 -9.9346313 -1.0516835 49.999527 -1.0488173 49.975346 -18.688313 -40.701988
18540000000 -17.412476 -10.169782 -1.0514929 49.400852 -1.0477711 49.370659 -18.798313 -41.28017
18550000000 -17.485407 -10.365731 -1.0510098 48.790924 -1.0465261 48.765152 -18.9102 -41.763676
18560000000 -17.546707 -10.511483 -1.0507952 48.187962 -1.0464293 48.15699 -19.028383 -42.342945
18570000000 -17.605442 -10.701399 -1.0503151 47.574825 -1.0454978 47.558575 -19.130816 -42.957939
18580000000 -17.67037 -10.795398 -1.0496716 46.977192 -1.0462096 46.951344 -19.243488 -43.497261
18590000000 -17.733986 -10.966845 -1.049052 46.377514 -1.0462145 46.348656 -19.358999 -44.217201
18600000000 -17.798761 -11.085781 -1.0488951 45.778389 -1.0457218 45.746983 -19.472563 -44.728691
18610000000 -17.886312 -11.190618 -1.0485533 45.180351 -1.0447154 45.139725 -19.594221 -45.334885
18620000000 -17.966969 -11.373236 -1.0479312 44.577614 -1.0439951 44.544083 -19.702999 -45.96312
18630000000 -18.043552 -11.47614 -1.0458393 43.970604 -1.0433259 43.950489 -19.829506 -46.546104
18640000000 -18.126749 -11.574533 -1.0462126 43.371563 -1.0427874 43.340832 -19.964848 -46.964859
18650000000 -18.209639 -11.616785 -1.045596 42.768948 -1.0423297 42.736294 -20.124699 -47.481888
18660000000 -18.293137 -11.720681 -1.0456392 42.16116 -1.041532 42.133018 -20.266281 -47.930569
18670000000 -18.367741 -11.712476 -1.0465946 41.551731 -1.0405431 41.520206 -20.417168 -48.402512
18680000000 -18.439951 -11.700011 -1.0446141 40.946995 -1.0422325 40.911488 -20.561613 -48.887272
18690000000 -18.508165 -11.743872 -1.0462191 40.341755 -1.0418179 40.311535 -20.72069 -49.387177
18700000000 -18.584131 -11.741031 -1.0458963 39.735481 -1.0421414 39.705288 -20.889071 -49.891144
18710000000 -18.660057 -11.74717 -1.0460603 39.122501 -1.0417973 39.098064 -21.030323 -50.47715
18720000000 -18.728413 -11.764306 -1.0462474 38.526844 -1.0408872 38.484409 -21.195915 -51.047756
18730000000 -18.815294 -11.718578 -1.0452044 37.923153 -1.041504 37.88673 -21.354979 -51.636669
18740000000 -18.900045 -11.66194 -1.0466229 37.318409 -1.0396643 37.285023 -21.504557 -52.184837
18750000000 -18.995899 -11.586197 -1.044217 36.711128 -1.0404636 36.675259 -21.698301 -52.708973
18760000000 -19.08807 -11.503699 -1.0435816 36.102421 -1.0395876 36.072559 -21.882502 -53.222603
18770000000 -19.172356 -11.304954 -1.0442232 35.496265 -1.0395347 35.466969 -22.067087 -53.554108
18780000000 -19.266834 -11.237521 -1.0439786 34.886406 -1.0394861 34.854656 -22.267683 -54.087074
18790000000 -19.360193 -11.165243 -1.0443618 34.284405 -1.0397241 34.259731 -22.474051 -54.52216
18800000000 -19.441923 -11.161135 -1.0434852 33.675877 -1.040148 33.647385 -22.662497 -55.067055
18810000000 -19.522839 -11.1375 -1.0445778 33.071957 -1.0390737 33.038303 -22.8641 -55.628017
18820000000 -19.608833 -11.051764 -1.0444984 32.465157 -1.038906 32.431309 -23.059912 -56.142128
18830000000 -19.680391 -11.077571 -1.0430807 31.865248 -1.0403507 31.822231 -23.245289 -56.863686
18840000000 -19.74947 -11.107695 -1.0438296 31.257446 -1.0398544 31.22212 -23.436707 -57.394539
18850000000 -19.818243 -11.115335 -1.0435708 30.645973 -1.0395025 30.612068 -23.637127 -58.038097
18860000000 -19.870667 -11.09807 -1.0439131 30.038124 -1.0403869 30.017296 -23.81473 -58.52594
18870000000 -19.925148 -10.875271 -1.0442065 29.434967 -1.0400373 29.402708 -24.034159 -59.024055
18880000000 -19.985811 -10.7293 -1.0448673 28.821186 -1.0402747 28.797007 -24.255121 -59.554245
18890000000 -20.039473 -10.473585 -1.0446759 28.213388 -1.0403359 28.185108 -24.491186 -60.070511
18900000000 -20.101656 -10.1538 -1.0456309 27.602186 -1.0405773 27.57497 -24.738224 -60.465923
18910000000 -20.162811 -9.8108397 -1.0458544 26.994047 -1.0415984 26.963985 -25.00153 -60.9631
18920000000 -20.233946 -9.435524 -1.0460198 26.384804 -1.0420852 26.348942 -25.275047 -61.4487
18930000000 -20.303242 -9.0717182 -1.0460317 25.77356 -1.0427417 25.740894 -25.580912 -62.001202
18940000000 -20.368486 -8.6701231 -1.0465991 25.166203 -1.041667 25.128649 -25.914932 -62.37999
18950000000 -20.445099 -8.2867823 -1.0468894 24.558075 -1.0434065 24.521166 -26.241823 -62.765778
18960000000 -20.529268 -7.9379735 -1.046501 23.948591 -1.0429852 23.910269 -26.549385 -63.434734
18970000000 -20.603327 -7.5501289 -1.0466908 23.335165 -1.0433347 23.298246 -26.896591 -64.00367
18980000000 -20.673635 -7.2201085 -1.0456694 22.721722 -1.043528 22.691399 -27.252476 -64.646652
18990000000 -20.736118 -6.8157978 -1.0473862 22.112619 -1.0439249 22.081516 -27.587719 -65.122406
19000000000 -20.793531 -6.3436584 -1.047891 21.495903 -1.045704 21.462971 -27.939699 -65.649612
19010000000 -20.84227 -5.8602662 -1.0496123 20.879049 -1.0450506 20.844906 -28.31321 -66.07795
19020000000 -20.879826 -5.4439893 -1.0501047 20.262651 -1.045818 20.234789 -28.684292 -66.437767
19030000000 -20.935535 -5.0569949 -1.0504688 19.651651 -1.0470577 19.616758 -29.047298 -66.686592
19040000000 -20.985479 -4.6879063 -1.0505815 19.043428 -1.0478511 19.00548 -29.476759 -66.764534
19050000000 -21.030817 -4.1162176 -1.052457 18.424175 -1.0475296 18.394417 -29.92161 -66.691925
19060000000 -21.086723 -3.703454 -1.0524576 17.811357 -1.0482228 17.782997 -30.386032 -66.656906
19070000000 -21.140421 -3.1819787 -1.0522802 17.198137 -1.0502832 17.164892 -30.957403 -66.193756
19080000000 -21.192503 -2.5419707 -1.0530491 16.580963 -1.0503316 16.545534 -31.47632 -65.388718
19090000000 -21.242182 -2.0278637 -1.0549011 15.962639 -1.0510629 15.934557 -32.121952 -64.977585
19100000000 -21.295784 -1.455534 -1.055891 15.33919 -1.0524322 15.313577 -32.845726 -63.856457
19110000000 -21.32918 -0.78052795 -1.056963 14.725597 -1.0533282 14.695934 -33.534721 -63.143589
19120000000 -21.363779 -0.23177305 -1.0575368 14.113806 -1.053756 14.075541 -34.367962 -62.677101
19130000000 -21.403963 0.24250713 -1.0585852 13.497996 -1.0545042 13.454213 -35.235329 -61.684437
19140000000 -21.438864 0.797984 -1.0598844 12.876655 -1.0559273 12.842106 -36.218464 -60.601276
19150000000 -21.444454 1.2143867 -1.0606421 12.258214 -1.0566962 12.225699 -37.286518 -59.303261
19160000000 -21.447866 1.6889672 -1.0610367 11.642582 -1.0571684 11.61047 -38.516151 -56.914589
19170000000 -21.440145 2.1855898 -1.0632441 11.024717 -1.0595567 10.993703 -39.862946 -54.034306
19180000000 -21.413853 2.6460984 -1.0643113 10.40346 -1.0606101 10.369184 -41.307022 -49.90321
19190000000 -21.39435 3.1727962 -1.0648785 9.7838802 -1.0615021 9.7501001 -42.837143 -42.293163
19200000000 -21.349909 3.6777461 -1.0671519 9.1645088 -1.0632007 9.1326962 -44.509441 -33.077309
19210000000 -21.319849 4.2610526 -1.0679579 8.5434275 -1.0640388 8.5092373 -45.86438 -17.896776
19220000000 -21.278809 4.8089824 -1.0699095 7.9285564 -1.0658171 7.8899651 -46.52219 2.2603264
19230000000 -21.225847 5.5239162 -1.071225 7.3161573 -1.0673002 7.2683125 -46.262749 22.984772
19240000000 -21.175203 6.207417 -1.0727674 6.6971369 -1.0687462 6.6566005 -44.740482 39.852901
19250000000 -21.125141 6.9309745 -1.0736355 6.0720406 -1.0705092 6.0391617 -42.976814 54.15556
19260000000 -21.091301 7.6654181 -1.0756223 5.4591861 -1.0719032 5.4242306 -41.170597 61.339401
19270000000 -21.025324 8.3680801 -1.076264 4.8384762 -1.0733086 4.8100238 -39.452461 67.593025
19280000000 -20.986292 9.1587381 -1.0785351 4.2291846 -1.0743248 4.1865582 -37.914349 71.490067
19290000000 -20.932541 9.8730192 -1.0793741 3.6060574 -1.076263 3.5731823 -36.572433 74.424103
19300000000 -20.876638 10.717875 -1.08093 2.9837444 -1.0783297 2.9547882 -35.462379 76.095695
19310000000 -20.826372 11.396237 -1.082958 2.3726332 -1.0799921 2.3312306 -34.512642 77.296272
19320000000 -20.774048 12.042067 -1.0838374 1.7511971 -1.0820217 1.7178611 -33.625031 78.349724
19330000000 -20.726355 12.671044 -1.0858878 1.1300541 -1.0819945 1.0980046 -32.900475 78.832039
19340000000 -20.669321 13.241708 -1.0879105 0.51694793 -1.0832222 0.47762954 -32.273476 79.130936
19350000000 -20.617886 13.889731 -1.0890483 -0.10663461 -1.0845228 -0.13888367 -31.709795 79.298492
19360000000 -20.5725 14.437083 -1.0908276 -0.72779411 -1.0861248 -0.75811106 -31.15007 78.796906
19370000000 -20.516203 14.832094 -1.0914942 -1.3482333 -1.0877163 -1.3814559 -30.53154 78.564293
19380000000 -20.448669 15.345608 -1.0940534 -1.9603488 -1.0884871 -2.0024354 -29.994413 77.958725
19390000000 -20.38282 15.94512 -1.0947251 -2.5802834 -1.091648 -2.6205037 -29.460266 77.373566
19400000000 -20.312166 16.391323 -1.0968124 -3.197325 -1.093166 -3.2389965 -28.94771 77.107193
19410000000 -20.254616 16.949093 -1.0990485 -3.8192019 -1.0950916 -3.8667271 -28.459538 76.774628
19420000000 -20.167416 17.470284 -1.1008633 -4.4441781 -1.096559 -4.4877138 -28.001997 76.524467
19430000000 -20.103481 17.983665 -1.1036396 -5.0685911 -1.0988765 -5.1088977 -27.544973 75.980713
19440000000 -20.037092 18.362196 -1.104605 -5.6885161 -1.1010031 -5.7349315 -27.106108 75.597557
19450000000 -19.965281 18.756639 -1.1062964 -6.3098745 -1.1028477 -6.3550825 -26.730091 75.181206
19460000000 -19.897566 19.09556 -1.1085449 -6.9304771 -1.1043576 -6.9791751 -26.379469 74.99382
19470000000 -19.823788 19.334858 -1.1091955 -7.5510621 -1.1068492 -7.6006336 -26.055231 74.543236
19480000000 -19.750706 19.539476 -1.1115551 -8.1777029 -1.1083107 -8.214777 -25.747564 74.2575
19490000000 -19.677368 19.691759 -1.1138705 -8.8006611 -1.1098613 -8.8390036 -25.441261 73.972549
19500000000 -19.595564 19.815292 -1.1153268 -9.4283314 -1.1125393 -9.4663544 -25.145367 73.603249
19510000000 -19.495943 19.940224 -1.1196312 -10.049315 -1.1153184 -10.092166 -24.846228 73.161957
19520000000 -19.401896 20.083485 -1.1224872 -10.682154 -1.1183769 -10.714032 -24.558737 72.785919
19530000000 -19.301006 20.046778 -1.1252536 -11.29694 -1.1202644 -11.342158 -24.29501 72.389847
19540000000 -19.203531 20.135792 -1.1271042 -11.932457 -1.1235456 -11.96896 -24.046473 71.938377
19550000000 -19.095348 20.159309 -1.1285704 -12.554509 -1.1252559 -12.585071 -23.823538 71.616478
19560000000 -18.993574 20.196812 -1.1312181 -13.184002 -1.1266371 -13.213125 -23.562202 71.163849
19570000000 -18.884773 20.241096 -1.1330538 -13.806625 -1.1290122 -13.836683 -23.312206 70.707619
19580000000 -18.771053 20.338017 -1.1366184 -14.433244 -1.1319047 -14.463669 -23.035948 70.167908
19590000000 -18.639244 20.434958 -1.138019 -15.062502 -1.1347523 -15.098576 -22.768095 69.75
19600000000 -18.507851 20.542734 -1.1431633 -15.697233 -1.1389903 -15.724841 -22.489447 69.222679
19610000000 -18.364069 20.616711 -1.1460719 -16.317736 -1.1424702 -16.349171 -22.217793 68.810463
19620000000 -18.233334 20.808777 -1.1506827 -16.940538 -1.1453167 -16.976307 -21.968752 68.326576
19630000000 -18.110237 20.965361 -1.1528873 -17.562542 -1.1491468 -17.608229 -21.736446 67.746399
19640000000 -17.985159 21.050682 -1.1542217 -18.183186 -1.1523466 -18.226759 -21.507071 67.405121
19650000000 -17.868385 21.248026 -1.1573533 -18.816055 -1.1540065 -18.847174 -21.300177 67.024986
19660000000 -17.75893 21.374979 -1.1610364 -19.442886 -1.1564157 -19.481331 -21.084051 66.527222
19670000000 -17.648903 21.517548 -1.1644301 -20.068869 -1.1606511 -20.10421 -20.883614 66.098198
19680000000 -17.566502 21.58721 -1.167432 -20.694777 -1.1622922 -20.7304 -20.666651 65.467712
19690000000 -17.470966 21.696495 -1.1698247 -21.326532 -1.1666608 -21.363703 -20.479942 64.905525
19700000000 -17.39209 21.720594 -1.1728839 -21.949272 -1.1692796 -21.98502 -20.278843 64.340797
19710000000 -17.303165 21.773294 -1.1757263 -22.578442 -1.1711971 -22.61137 -20.087996 63.631832
19720000000 -17.210535 21.747925 -1.178977 -23.20447 -1.1754036 -23.240194 -19.894306 62.930508
19730000000 -17.112404 21.707211 -1.1835219 -23.832695 -1.1794858 -23.871222 -19.702288 62.303776
19740000000 -17.011677 21.698107 -1.186192 -24.462465 -1.1841084 -24.503609 -19.522745 61.673378
19750000000 -16.917294 21.658831 -1.1899909 -25.090197 -1.185491 -25.124643 -19.353828 61.094692
19760000000 -16.815805 21.580153 -1.1928504 -25.710146 -1.1889383 -25.749702 -19.19281 60.573627
19770000000 -16.722145 21.383238 -1.1949279 -26.333979 -1.1912558 -26.374973 -19.025644 60.101368
19780000000 -16.628054 21.274813 -1.1976563 -26.956984 -1.1941339 -27.00036 -18.873957 59.645992
19790000000 -16.54995 21.102776 -1.2007712 -27.590584 -1.1964514 -27.630259 -18.709511 59.160175
19800000000 -16.457115 20.894855 -1.2042601 -28.219364 -1.2007071 -28.258698 -18.561216 58.709423
19810000000 -16.368835 20.751642 -1.2083576 -28.843531 -1.2045121 -28.882633 -18.413633 58.188274
19820000000 -16.277796 20.58259 -1.2126125 -29.471416 -1.2086067 -29.509871 -18.275217 57.645439
19830000000 -16.191538 20.394381 -1.2169282 -30.099899 -1.2130198 -30.143576 -18.134758 57.066864
19840000000 -16.107176 20.155655 -1.2201054 -30.733772 -1.216053 -30.774538 -18.013525 56.421093
19850000000 -16.018322 19.914698 -1.2236352 -31.36454 -1.220413 -31.405094 -17.883665 55.811298
19860000000 -15.923418 19.706116 -1.2275683 -31.987688 -1.2234372 -32.035835 -17.757141 55.093742
19870000000 -15.840602 19.420391 -1.230702 -32.617844 -1.2270573 -32.658176 -17.635027 54.424328
19880000000 -15.75183 19.195869 -1.2328519 -33.248409 -1.2297636 -33.290951 -17.505028 53.741768
19890000000 -15.662533 18.935917 -1.237353 -33.883728 -1.232803 -33.918365 -17.367765 53.185844
19900000000 -15.565293 18.68182 -1.2421223 -34.504642 -1.236986 -34.544968 -17.223421 52.545025
19910000000 -15.472355 18.431953 -1.2467706 -35.143238 -1.2417288 -35.174561 -17.068932 51.925953
19920000000 -15.377401 18.127298 -1.2510955 -35.771301 -1.247345 -35.810925 -16.928026 51.445347
19930000000 -15.286877 17.854027 -1.2558485 -36.401157 -1.2531137 -36.444927 -16.775976 50.909214
19940000000 -15.191207 17.531609 -1.2611403 -37.038139 -1.2571069 -37.077869 -16.641918 50.376274
19950000000 -15.094807 17.260714 -1.2652724 -37.664154 -1.2615411 -37.700867 -16.511837 49.816513
19960000000 -14.994448 16.947046 -1.2698016 -38.297543 -1.2659307 -38.330952 -16.388474 49.302956
19970000000 -14.897583 16.639959 -1.2745845 -38.922813 -1.2704786 -38.970787 -16.263876 48.734051
19980000000 -14.797216 16.332796 -1.2798444 -39.556793 -1.2750328 -39.595573 -16.144287 48.135559
19990000000 -14.697927 16.05802 -1.2840503 -40.189026 -1.2803828 -40.227844 -16.026121 47.554142
20000000000 -14.596428 15.792278 -1.2879006 -40.809303 -1.2852786 -40.849739 -15.901348 46.895702
20010000000 -14.512141 15.456824 -1.2925609 -41.444607 -1.2888587 -41.477276 -15.781735 46.299038
20020000000 -14.419461 15.165273 -1.2979493 -42.06929 -1.2945198 -42.114353 -15.657599 45.659557
20030000000 -14.333261 14.86741 -1.3039358 -42.708256 -1.2991334 -42.738945 -15.532 45.071354
20040000000 -14.244464 14.591794 -1.3089514 -43.341427 -1.3044964 -43.379345 -15.409936 44.460014
20050000000 -14.159464 14.299716 -1.3140421 -43.966015 -1.3104765 -44.01062 -15.288033 43.841354
20060000000 -14.078706 14.022508 -1.3201728 -44.603123 -1.3147568 -44.635395 -15.178089 43.244431
20070000000 -13.994393 13.675466 -1.3233534 -45.226177 -1.3210675 -45.271622 -15.06847 42.690342
20080000000 -13.918627 13.299308 -1.3290309 -45.863003 -1.3248451 -45.904575 -14.961314 42.146355
20090000000 -13.838582 12.889713 -1.3338546 -46.494781 -1.3293972 -46.53257 -14.854037 41.63623
20100000000 -13.762686 12.500169 -1.3390309 -47.126289 -1.3350645 -47.160648 -14.748946 41.089382
20110000000 -13.678946 12.085595 -1.3446854 -47.75399 -1.3397949 -47.790344 -14.642994 40.581345
20120000000 -13.593426 11.697395 -1.3510809 -48.392094 -1.3453816 -48.419399 -14.546054 40.028042
20130000000 -13.511008 11.364442 -1.3556613 -49.018078 -1.3511246 -49.06052 -14.447447 39.408138
20140000000 -13.427217 11.010583 -1.3617643 -49.65329 -1.3569995 -49.683208 -14.358244 38.782539
20150000000 -13.346774 10.723253 -1.3668333 -50.283855 -1.3611463 -50.322727 -14.276336 38.085175
20160000000 -13.268723 10.406221 -1.3718507 -50.91819 -1.3665004 -50.949345 -14.187447 37.394161
20170000000 -13.193607 10.116223 -1.3764322 -51.552013 -1.3721766 -51.587608 -14.098707 36.673977
20180000000 -13.126792 9.8017292 -1.3820474 -52.179352 -1.3775618 -52.220493 -14.001634 35.926323
20190000000 -13.066622 9.4337502 -1.386553 -52.808727 -1.3828574 -52.854866 -13.908814 35.221146
20200000000 -12.999029 9.0477791 -1.3918587 -53.442524 -1.3879565 -53.484325 -13.807144 34.52026
20210000000 -12.93706 8.6323299 -1.3977792 -54.073509 -1.3945073 -54.113899 -13.692621 33.867062
20220000000 -12.872171 8.2178783 -1.4033768 -54.709507 -1.3994918 -54.741474 -13.594095 33.224117
20230000000 -12.802042 7.7568922 -1.4089687 -55.339771 -1.4057713 -55.378902 -13.495314 32.607796
20240000000 -12.727051 7.3185015 -1.4156245 -55.975075 -1.4123021 -56.014606 -13.391239 32.039265
20250000000 -12.647274 6.8599663 -1.4223088 -56.605789 -1.4177713 -56.649677 -13.298248 31.491793
20260000000 -12.568602 6.3435984 -1.4293275 -57.238777 -1.4239843 -57.271511 -13.200707 30.934757
20270000000 -12.489729 5.8753867 -1.4347062 -57.86858 -1.4310039 -57.910881 -13.113423 30.393501
20280000000 -12.41847 5.4049058 -1.4394345 -58.495258 -1.4370611 -58.537891 -13.02623 29.878164
20290000000 -12.347124 4.9191952 -1.4449235 -59.129009 -1.4405879 -59.1614 -12.950198 29.28364
20300000000 -12.276319 4.4291673 -1.4496818 -59.76273 -1.4459347 -59.788937 -12.873682 28.730751
20310000000 -12.211754 3.9481304 -1.4550897 -60.387726 -1.4514763 -60.424217 -12.792758 28.136284
20320000000 -12.138309 3.4734957 -1.4623597 -61.020557 -1.4585363 -61.055069 -12.713497 27.583168
20330000000 -12.072629 2.9865665 -1.470109 -61.658482 -1.4659164 -61.688385 -12.62465 26.980925
20340000000 -11.997767 2.4929872 -1.4774373 -62.298977 -1.4733157 -62.334171 -12.540352 26.362488
20350000000 -11.920004 2.0100138 -1.4849713 -62.921692 -1.4812139 -62.960903 -12.452588 25.715424
20360000000 -11.841907 1.5179014 -1.491998 -63.56036 -1.4880565 -63.597763 -12.369541 25.107538
20370000000 -11.769812 1.0504241 -1.4991969 -64.191917 -1.4955609 -64.225739 -12.285158 24.51185
20380000000 -11.688245 0.61200362 -1.504703 -64.815918 -1.5010829 -64.851166 -12.200276 23.88715
20390000000 -11.610812 0.15212017 -1.5109395 -65.443024 -1.5072973 -65.470016 -12.11738 23.29068
20400000000 -11.530637 -0.26797286 -1.5190706 -66.068268 -1.5155383 -66.101555 -12.035965 22.735415
20410000000 -11.463526 -0.69290555 -1.5271314 -66.708221 -1.5223376 -66.741173 -11.958277 22.16745
20420000000 -11.396256 -1.0713997 -1.5331845 -67.334679 -1.5296698 -67.373383 -11.88245 21.578753
20430000000 -11.333474 -1.49746 -1.5403628 -67.96891 -1.5366203 -68.005058 -11.809258 20.995731
20440000000 -11.276017 -1.9289944 -1.5477736 -68.603569 -1.5432757 -68.63401 -11.735161 20.371052
20450000000 -11.218811 -2.3610907 -1.5535787 -69.231941 -1.5502317 -69.265396 -11.672796 19.75378
20460000000 -11.16571 -2.7940361 -1.5601349 -69.858742 -1.5559464 -69.898041 -11.610646 19.106256
20470000000 -11.10951 -3.2466033 -1.5664288 -70.497627 -1.5626712 -70.525726 -11.551047 18.423243
20480000000 -11.051022 -3.7335954 -1.5712835 -71.121391 -1.5685267 -71.16713 -11.488725 17.741667
20490000000 -10.993547 -4.1822367 -1.5786375 -71.754593 -1.5748749 -71.787605 -11.418288 17.057144
20500000000 -10.937163 -4.714416 -1.5847838 -72.388176 -1.5815591 -72.423546 -11.346897 16.365612
20510000000 -10.874964 -5.2136216 -1.5922801 -73.024467 -1.589553 -73.057419 -11.272197 15.711679
20520000000 -10.813094 -5.7206779 -1.6003489 -73.654114 -1.5967391 -73.692329 -11.20165 15.093562
20530000000 -10.753852 -6.2237711 -1.6079435 -74.294075 -1.6035327 -74.329224 -11.123993 14.432823
20540000000 -10.691129 -6.7124481 -1.6155492 -74.933395 -1.6110811 -74.962273 -11.054688 13.825429
20550000000 -10.63238 -7.1962123 -1.6216307 -75.560028 -1.6196047 -75.594193 -10.980248 13.22712
20560000000 -10.573949 -7.6842866 -1.6299531 -76.197708 -1.6268826 -76.227318 -10.907458 12.616115
20570000000 -10.517862 -8.1716957 -1.6379243 -76.821106 -1.6353909 -76.864723 -10.841783 12.048125
20580000000 -10.462248 -8.684269 -1.6460153 -77.460892 -1.6431891 -77.501419 -10.778217 11.465152
20590000000 -10.409308 -9.2073927 -1.6540285 -78.090736 -1.6491392 -78.127769 -10.717699 10.883474
20600000000 -10.352701 -9.722455 -1.6606668 -78.72168 -1.6574546 -78.76265 -10.654757 10.272574
20610000000 -10.301191 -10.288159 -1.6685669 -79.353867 -1.6642904 -79.391281 -10.592532 9.7104874
20620000000 -10.244786 -10.827554 -1.6754674 -79.988159 -1.6717219 -80.015259 -10.529036 9.0907612
20630000000 -10.186568 -11.390648 -1.6828308 -80.608154 -1.6797683 -80.648643 -10.467311 8.4828949
20640000000 -10.12411 -11.937906 -1.6905814 -81.248306 -1.6882317 -81.285675 -10.405475 7.853415
20650000000 -10.065183 -12.438757 -1.6997868 -81.886826 -1.6964242 -81.924973 -10.347204 7.2469759
20660000000 -10.003538 -12.96535 -1.7085563 -82.511726 -1.7057122 -82.556343 -10.283613 6.6252723
20670000000 -9.9441109 -13.493072 -1.7174751 -83.150978 -1.7136762 -83.189705 -10.221048 6.0270267
20680000000 -9.8892117 -14.006958 -1.7251319 -83.778786 -1.7223823 -83.815422 -10.158259 5.399395
20690000000 -9.8349886 -14.538483 -1.7327771 -84.410713 -1.7306782 -84.44986 -10.097687 4.785058
20700000000 -9.7809238 -15.046497 -1.7402831 -85.042114 -1.7376137 -85.076462 -10.037379 4.2121043
20710000000 -9.721859 -15.531847 -1.7493569 -85.662857 -1.7451752 -85.703972 -9.9822206 3.5838156
20720000000 -9.67031 -16.048738 -1.7573994 -86.293587 -1.7526366 -86.333595 -9.9283228 2.9556072
20730000000 -9.6167688 -16.563633 -1.7649207 -86.926117 -1.7622651 -86.954773 -9.8720169 2.352833
20740000000 -9.5678253 -17.097191 -1.7736624 -87.560776 -1.7704641 -87.59333 -9.81635 1.7103953
20750000000 -9.5188417 -17.6117 -1.7834704 -88.200409 -1.7800601 -88.231018 -9.7578554 1.0967925
20760000000 -9.4607668 -18.128298 -1.7940588 -88.823059 -1.7897038 -88.853195 -9.7020283 0.46602845
20770000000 -9.4089928 -18.621866 -1.8024153 -89.458923 -1.7989347 -89.494049 -9.652401 -0.20865838
20780000000 -9.3567982 -19.119028 -1.8107241 -90.086929 -1.8075148 -90.127792 -9.5982561 -0.87228632
20790000000 -9.3024197 -19.60762 -1.8207084 -90.708923 -1.8155932 -90.749245 -9.5413961 -1.5414411
20800000000 -9.2522182 -20.132524 -1.827322 -91.342079 -1.8236356 -91.384644 -9.4901228 -2.2283876
20810000000 -9.2041702 -20.625692 -1.8346841 -91.978973 -1.8337408 -92.020576 -9.4361963 -2.8846242
20820000000 -9.1573076 -21.139683 -1.8453159 -92.608002 -1.8413622 -92.645073 -9.3742952 -3.5240622
20830000000 -9.1103916 -21.685209 -1.8535948 -93.239021 -1.8504782 -93.272095 -9.3166103 -4.1505513
20840000000 -9.0600443 -22.228861 -1.8628008 -93.866219 -1.8590349 -93.904205 -9.2595272 -4.7404037
20850000000 -9.0094261 -22.758503 -1.8725941 -94.497871 -1.8688982 -94.526337 -9.2010784 -5.3986778
20860000000 -8.9595289 -23.292345 -1.8816861 -95.125916 -1.8781096 -95.172287 -9.1432266 -5.9981918
20870000000 -8.9079857 -23.817759 -1.8916817 -95.76236 -1.8888659 -95.794876 -9.0876055 -6.6080241
20880000000 -8.8563433 -24.346315 -1.9025946 -96.391563 -1.8984108 -96.427185 -9.0357981 -7.2372966
20890000000 -8.8046646 -24.882986 -1.9116688 -97.017998 -1.9088998 -97.053062 -8.9817266 -7.8352704
20900000000 -8.757802 -25.400805 -1.9211798 -97.641739 -1.9169056 -97.680267 -8.9317913 -8.4338474
20910000000 -8.7091112 -25.941711 -1.928008 -98.263641 -1.9250226 -98.295319 -8.8828697 -9.0479717
20920000000 -8.6607885 -26.507515 -1.9364481 -98.886139 -1.9341365 -98.916756 -8.8310728 -9.6358509
20930000000 -8.6173277 -27.070274 -1.9449606 -99.508774 -1.9417878 -99.541443 -8.779809 -10.214206
20940000000 -8.5763903 -27.63513 -1.9524066 -100.13289 -1.950353 -100.16316 -8.7311945 -10.780545
20950000000 -8.5336142 -28.174196 -1.9633261 -100.76687 -1.9587693 -100.8016 -8.6847172 -11.379157
20960000000 -8.48981 -28.693619 -1.9731292 -101.39887 -1.9699924 -101.43841 -8.6415043 -11.978437
20970000000 -8.4478998 -29.231951 -1.9826307 -102.03522 -1.9800621 -102.07525 -8.5990896 -12.623485
20980000000 -8.3986425 -29.770742 -1.9922093 -102.66538 -1.9898032 -102.70493 -8.5559616 -13.240683
20990000000 -8.3545837 -30.303097 -2.0020738 -103.29778 -1.9993612 -103.33321 -8.5140171 -13.89362
21000000000 -8.3101654 -30.852484 -2.0120633 -103.91847 -2.0092576 -103.96126 -8.4707727 -14.530708
21010000000 -8.2644053 -31.386095 -2.0199423 -104.54361 -2.0171182 -104.5745 -8.4251785 -15.207812
21020000000 -8.221159 -31.940151 -2.0300477 -105.16488 -2.0277996 -105.21015 -8.37848 -15.836545
21030000000 -8.1771927 -32.493095 -2.0407434 -105.8037 -2.0382035 -105.83378 -8.3310261 -16.472851
21040000000 -8.1354141 -33.015881 -2.0514691 -106.43892 -2.0499063 -106.46982 -8.2805443 -17.100611
21050000000 -8.093729 -33.548023 -2.0622437 -107.06476 -2.0603611 -107.10438 -8.2341843 -17.740768
21060000000 -8.0553865 -34.08857 -2.0730777 -107.70858 -2.0710182 -107.74469 -8.1876802 -18.360073
21070000000 -8.0141182 -34.615322 -2.0844398 -108.3351 -2.0821338 -108.37912 -8.1396065 -18.974508
21080000000 -7.9746156 -35.161434 -2.0951703 -108.96806 -2.0926747 -109.0053 -8.0901775 -19.599205
21090000000 -7.9324236 -35.700317 -2.1048758 -109.59815 -2.1028962 -109.6388 -8.045845 -20.235899
21100000000 -7.8926311 -36.244122 -2.1145205 -110.22235 -2.112761 -110.26781 -8.0031815 -20.847914
21110000000 -7.8504796 -36.811508 -2.1259871 -110.84388 -2.1218948 -110.89111 -7.9613452 -21.479616
21120000000 -7.808908 -37.365353 -2.1356306 -111.47487 -2.1337616 -111.50836 -7.9162011 -22.078886
21130000000 -7.7699046 -37.932991 -2.1452479 -112.1013 -2.143796 -112.13639 -7.8709416 -22.673727
21140000000 -7.7283463 -38.513859 -2.1559978 -112.72465 -2.1539199 -112.75859 -7.8279586 -23.27783
21150000000 -7.6886764 -39.08548 -2.167824 -113.34973 -2.1632776 -113.38365 -7.7830186 -23.892319
21160000000 -7.6488008 -39.629562 -2.1782541 -113.97973 -2.1750789 -114.01419 -7.7435513 -24.494791
21170000000 -7.6102533 -40.188457 -2.1888304 -114.61533 -2.1852868 -114.64601 -7.7031431 -25.108467
21180000000 -7.5726829 -40.729641 -2.1980438 -115.23831 -2.1960521 -115.27563 -7.6618147 -25.717989
21190000000 -7.5344844 -41.290848 -2.2091188 -115.86353 -2.2070818 -115.90311 -7.622304 -26.310013
21200000000 -7.4962363 -41.858486 -2.2198305 -116.48798 -2.2168283 -116.52815 -7.5825586 -26.928658
21210000000 -7.4553108 -42.41341 -2.2300715 -117.11372 -2.2268229 -117.14484 -7.5408726 -27.537584
21220000000 -7.4170299 -42.977016 -2.2396688 -117.73548 -2.2372255 -117.77459 -7.5028601 -28.161554
21230000000 -7.377748 -43.5345 -2.2513468 -118.36301 -2.2475507 -118.39861 -7.4645038 -28.761524
21240000000 -7.3387642 -44.072762 -2.261961 -118.98157 -2.2589982 -119.03218 -7.4267097 -29.373211
21250000000 -7.2995214 -44.626175 -2.2728629 -119.61713 -2.2702205 -119.65474 -7.3863325 -29.998615
21260000000 -7.2636876 -45.184799 -2.2829018 -120.24156 -2.2818799 -120.2798 -7.3460817 -30.61237
21270000000 -7.2259197 -45.738152 -2.2958448 -120.86293 -2.2925107 -120.89465 -7.3051605 -31.228384
21280000000 -7.1901083 -46.297714 -2.3063853 -121.47803 -2.3025949 -121.50949 -7.2641749 -31.844473
21290000000 -7.1514044 -46.844711 -2.3172357 -122.09679 -2.3136261 -122.13478 -7.2274919 -32.45224
21300000000 -7.1165423 -47.393456 -2.3269918 -122.71761 -2.3236418 -122.76114 -7.1885223 -33.065861
21310000000 -7.0847192 -47.953663 -2.3363268 -123.34476 -2.333993 -123.38047 -7.150528 -33.658329
21320000000 -7.0515485 -48.531528 -2.3480089 -123.96314 -2.3458652 -124.0022 -7.1148047 -34.267643
21330000000 -7.0174785 -49.118732 -2.3595538 -124.59234 -2.3559716 -124.61961 -7.0811315 -34.843216
21340000000 -6.9844351 -49.709034 -2.3701575 -125.21471 -2.3671103 -125.24499 -7.0472164 -35.441719
21350000000 -6.9501033 -50.293827 -2.3802667 -125.83157 -2.3774772 -125.86897 -7.0120325 -36.047138
21360000000 -6.913826 -50.868706 -2.3901918 -126.45576 -2.3875701 -126.4861 -6.9785862 -36.658428
21370000000 -6.8775187 -51.440262 -2.4011977 -127.07589 -2.3999774 -127.11463 -6.9436321 -37.269112
21380000000 -6.8415408 -51.991924 -2.4152369 -127.71857 -2.4118626 -127.74847 -6.9110484 -37.894825
21390000000 -6.8085308 -52.533306 -2.4282875 -128.35231 -2.424896 -128.38858 -6.8743491 -38.511871
21400000000 -6.7748804 -53.099422 -2.4410191 -128.98392 -2.4384162 -129.02904 -6.8393035 -39.162148
21410000000 -6.7402577 -53.666084 -2.4536505 -129.60916 -2.4492631 -129.64912 -6.8028569 -39.802227
21420000000 -6.7049193 -54.219215 -2.4660034 -130.23119 -2.4634748 -130.2686 -6.7631583 -40.413914
21430000000 -6.6702542 -54.797836 -2.4778936 -130.84995 -2.4740825 -130.89549 -6.726151 -41.029427
21440000000 -6.6375198 -55.378452 -2.4884896 -131.45763 -2.4863806 -131.50009 -6.6880088 -41.643463
21450000000 -6.601727 -55.968349 -2.5004511 -132.07573 -2.4977674 -132.11859 -6.65273 -42.235039
21460000000 -6.5663247 -56.536221 -2.5128169 -132.70351 -2.5095096 -132.73796 -6.6160226 -42.837559
21470000000 -6.5294361 -57.094398 -2.5244725 -133.32751 -2.5212083 -133.36681 -6.5838037 -43.426186
21480000000 -6.4933305 -57.661312 -2.5387433 -133.94925 -2.5350873 -133.9922 -6.5548444 -44.042171
21490000000 -6.4566064 -58.204044 -2.5496991 -134.57878 -2.5479152 -134.62491 -6.5212049 -44.648232
21500000000 -6.4199691 -58.736622 -2.5641522 -135.20659 -2.5609612 -135.24977 -6.4892077 -45.27779
21510000000 -6.3863311 -59.274445 -2.5755265 -135.8253 -2.5735395 -135.86833 -6.4577522 -45.915089
21520000000 -6.3511338 -59.785412 -2.5889337 -136.43617 -2.5850079 -136.47742 -6.426259 -46.562401
21530000000 -6.3189125 -60.283024 -2.6014533 -137.05507 -2.5981822 -137.09206 -6.392983 -47.220409
21540000000 -6.2882738 -60.803089 -2.6125271 -137.66074 -2.6099467 -137.70255 -6.3589258 -47.874413
21550000000 -6.2563467 -61.340897 -2.623373 -138.27039 -2.6216304 -138.30379 -6.3246846 -48.513397
21560000000 -6.2305655 -61.888359 -2.6360307 -138.88556 -2.6325927 -138.92575 -6.2877784 -49.142048
21570000000 -6.2026362 -62.450516 -2.6482983 -139.49701 -2.6453466 -139.53348 -6.2542329 -49.747589
21580000000 -6.1745334 -63.016644 -2.6594584 -140.11661 -2.6574514 -140.14894 -6.2188635 -50.353584
21590000000 -6.1460772 -63.582363 -2.6716609 -140.73756 -2.6695175 -140.77144 -6.185729 -50.947762
21600000000 -6.1165271 -64.149696 -2.6839843 -141.35544 -2.6816144 -141.39769 -6.1529355 -51.544834
21610000000 -6.0867381 -64.705612 -2.696744 -141.98309 -2.6945722 -142.01669 -6.1202645 -52.143368
21620000000 -6.056808 -65.274521 -2.7099161 -142.61069 -2.7078209 -142.64523 -6.0886283 -52.728848
21630000000 -6.0258102 -65.817421 -2.7217104 -143.21397 -2.7190754 -143.24045 -6.0573812 -53.310547
21640000000 -5.9947872 -66.371208 -2.7335021 -143.81592 -2.7312086 -143.84991 -6.0303373 -53.889191
21650000000 -5.9635653 -66.926422 -2.7449114 -144.42085 -2.7424989 -144.4583 -6.0034013 -54.477043
21660000000 -5.9357347 -67.472084 -2.7561247 -145.03238 -2.7546341 -145.06691 -5.9752927 -55.068142
21670000000 -5.9110131 -68.022247 -2.7686238 -145.65001 -2.7668192 -145.68633 -5.9495921 -55.661232
21680000000 -5.8859224 -68.570694 -2.7801273 -146.27585 -2.7786222 -146.31062 -5.9240851 -56.272968
21690000000 -5.8653727 -69.122734 -2.7927401 -146.89813 -2.7900922 -146.92979 -5.8995371 -56.866066
21700000000 -5.8436909 -69.675774 -2.8056278 -147.51936 -2.8019438 -147.56383 -5.8759446 -57.474163
21710000000 -5.8207393 -70.245773 -2.8179202 -148.13696 -2.8139398 -148.17384 -5.8495288 -58.094727
21720000000 -5.7936707 -70.79583 -2.8301005 -148.75694 -2.8271329 -148.79359 -5.8247085 -58.715961
21730000000 -5.7702498 -71.375893 -2.8415501 -149.3631 -2.8385398 -149.39816 -5.7977085 -59.34341
21740000000 -5.7418461 -71.954681 -2.8536217 -149.9635 -2.8511674 -150.00166 -5.7699146 -59.959991
21750000000 -5.7155342 -72.534256 -2.8649523 -150.58034 -2.8637393 -150.61101 -5.7438049 -60.567104
21760000000 -5.6897569 -73.115181 -2.8787067 -151.19734 -2.876965 -151.22493 -5.7161808 -61.169884
21770000000 -5.66116 -73.698395 -2.8914239 -151.80598 -2.8892007 -151.84967 -5.6914525 -61.774429
21780000000 -5.6360707 -74.277779 -2.9053071 -152.43762 -2.9028189 -152.47676 -5.6667676 -62.388191
21790000000 -5.6102858 -74.854362 -2.9195013 -153.06332 -2.916352 -153.08223 -5.6425486 -63.004768
21800000000 -5.5851579 -75.419342 -2.9320903 -153.67671 -2.9280264 -153.71388 -5.6176333 -63.620453
21810000000 -5.5586791 -75.983299 -2.9446073 -154.29497 -2.9412358 -154.33228 -5.5932336 -64.251549
21820000000 -5.5325775 -76.538078 -2.9577219 -154.91006 -2.9546859 -154.94324 -5.5678139 -64.899696
21830000000 -5.5073261 -77.086548 -2.9708934 -155.52049 -2.9682961 -155.55441 -5.542078 -65.556511
21840000000 -5.4804983 -77.630096 -2.9843545 -156.1347 -2.9812019 -156.17599 -5.516674 -66.213371
21850000000 -5.4540744 -78.182732 -2.9998174 -156.75565 -2.9967079 -156.79131 -5.4886684 -66.872475
21860000000 -5.4264541 -78.745377 -3.013469 -157.37785 -3.011152 -157.40732 -5.4585767 -67.511703
21870000000 -5.39991 -79.282593 -3.0274258 -157.98566 -3.0232716 -158.01926 -5.426681 -68.147209
21880000000 -5.3717518 -79.835457 -3.0415754 -158.60434 -3.0384021 -158.63115 -5.3967748 -68.770027
21890000000 -5.3468308 -80.39846 -3.0554698 -159.20799 -3.0525196 -159.24756 -5.3648915 -69.362808
21900000000 -5.3227673 -80.95739 -3.0690992 -159.82529 -3.0660172 -159.85583 -5.3344722 -69.961052
21910000000 -5.2987957 -81.513191 -3.0839438 -160.43782 -3.0814207 -160.47653 -5.3035331 -70.545158
21920000000 -5.2753758 -82.082718 -3.0970979 -161.03622 -3.0941432 -161.07889 -5.2752314 -71.112495
21930000000 -5.2528243 -82.668793 -3.1094048 -161.63017 -3.1066999 -161.66406 -5.2475057 -71.666489
21940000000 -5.2302194 -83.248764 -3.1230724 -162.23605 -3.1203234 -162.27295 -5.2232833 -72.220573
21950000000 -5.2080145 -83.840691 -3.1353786 -162.83817 -3.1331604 -162.87611 -5.1994929 -72.775803
21960000000 -5.1854396 -84.410286 -3.1495881 -163.4455 -3.1477602 -163.48196 -5.1780047 -73.354103
21970000000 -5.1617565 -84.993576 -3.1632938 -164.05945 -3.1607373 -164.09227 -5.1601319 -73.936012
21980000000 -5.1379867 -85.561935 -3.1767817 -164.67714 -3.1732924 -164.70078 -5.1421051 -74.525711
21990000000 -5.1120262 -86.118401 -3.1905773 -165.28232 -3.1865547 -165.31165 -5.1243081 -75.124962
22000000000 -5.0881472 -86.673286 -3.2037818 -165.8822 -3.2001271 -165.92287 -5.1045675 -75.749825
22010000000 -5.0652914 -87.216499 -3.2183092 -166.49657 -3.2134128 -166.5233 -5.0841789 -76.386322
22020000000 -5.0429249 -87.748062 -3.2312186 -167.09068 -3.2273779 -167.13156 -5.0607877 -77.028259
22030000000 -5.0200419 -88.293091 -3.2438061 -167.69556 -3.2403562 -167.73433 -5.0385542 -77.666786
22040000000 -5.0002966 -88.835121 -3.256954 -168.30588 -3.2546527 -168.3373 -5.0149632 -78.296402
22050000000 -4.9802785 -89.396408 -3.269712 -168.91342 -3.2668962 -168.94753 -4.992044 -78.933563
22060000000 -4.9610591 -89.947678 -3.2828474 -169.5199 -3.2797804 -169.56746 -4.9689307 -79.553452
22070000000 -4.9421806 -90.532539 -3.2960994 -170.12169 -3.2926292 -170.1618 -4.9456048 -80.152985
22080000000 -4.9237857 -91.115883 -3.3103981 -170.72557 -3.3066292 -170.76617 -4.9229712 -80.749069
22090000000 -4.9025846 -91.69677 -3.323827 -171.33896 -3.3205984 -171.37396 -4.9004841 -81.362137
22100000000 -4.8806076 -92.277679 -3.3384907 -171.93784 -3.3364232 -171.98 -4.8770089 -81.956779
22110000000 -4.8592987 -92.850815 -3.3515964 -172.5452 -3.349194 -172.57521 -4.85426 -82.575699
22120000000 -4.8354969 -93.417763 -3.3641291 -173.14699 -3.3620789 -173.19003 -4.8338675 -83.175919
22130000000 -4.8120098 -93.9823 -3.3788354 -173.75046 -3.3759542 -173.79164 -4.8127046 -83.783302
22140000000 -4.78971 -94.532097 -3.3920619 -174.37416 -3.3901172 -174.41031 -4.7928019 -84.391083
22150000000 -4.7669582 -95.084213 -3.4063048 -174.98811 -3.4038281 -175.01759 -4.771729 -85.015007
22160000000 -4.7459049 -95.627083 -3.4201267 -175.57993 -3.4167562 -175.61748 -4.7501326 -85.633873
22170000000 -4.7259192 -96.161606 -3.4332342 -176.161 -3.4312003 -176.2039 -4.7270494 -86.248482
22180000000 -4.7070212 -96.693222 -3.4478114 -176.75491 -3.4444852 -176.80298 -4.7053542 -86.872498
22190000000 -4.6878181 -97.248512 -3.4600613 -177.35916 -3.4587309 -177.39357 -4.6820159 -87.477722
22200000000 -4.6735616 -97.818497 -3.4740584 -177.96465 -3.4707873 -178.01109 -4.6610031 -88.09465
22210000000 -4.656405 -98.395569 -3.4871528 -178.59097 -3.4860528 -178.62527 -4.6422091 -88.694855
22220000000 -4.6392002 -98.98877 -3.502064 -179.21053 -3.500977 -179.24356 -4.6212182 -89.282257
22230000000 -4.6213775 -99.587776 -3.5179772 -179.81326 -3.515147 -179.85783 -4.6017575 -89.857719
22240000000 -4.6018124 -100.17451 -3.5315619 179.57471 -3.5291758 179.52435 -4.5803447 -90.451363
22250000000 -4.5809407 -100.74955 -3.5473418 178.96519 -3.544383 178.92467 -4.5583477 -91.043846
22260000000 -4.5584655 -101.32966 -3.5636504 178.37083 -3.5596128 178.32733 -4.5392089 -91.636421
22270000000 -4.5353723 -101.90298 -3.5765414 177.76472 -3.5754426 177.72278 -4.5206265 -92.236664
22280000000 -4.5113392 -102.48351 -3.5898845 177.17828 -3.5888665 177.12991 -4.5018353 -92.820862
22290000000 -4.4912462 -103.04717 -3.6051216 176.57556 -3.6040237 176.52965 -4.484025 -93.417397
22300000000 -4.466537 -103.59984 -3.6202605 175.97441 -3.6174898 175.93333 -4.4653192 -94.026772
22310000000 -4.446682 -104.14527 -3.6342466 175.38332 -3.6327913 175.34149 -4.4470315 -94.636665
22320000000 -4.4276047 -104.69835 -3.6500692 174.79045 -3.6477191 174.74458 -4.4277525 -95.257347
22330000000 -4.4087858 -105.23601 -3.6643648 174.19208 -3.6630967 174.14685 -4.4069719 -95.874794
22340000000 -4.390595 -105.78069 -3.6782804 173.59387 -3.6765621 173.55753 -4.3872571 -96.48941
22350000000 -4.3729916 -106.32257 -3.6951261 173.00606 -3.692445 172.96466 -4.365427 -97.11628
22360000000 -4.3543262 -106.88512 -3.7099183 172.41243 -3.7069449 172.37022 -4.345644 -97.706589
22370000000 -4.3359194 -107.43998 -3.72456 171.82217 -3.7222841 171.78331 -4.32517 -98.287933
22380000000 -4.3171849 -107.99947 -3.7385645 171.22264 -3.7372663 171.18863 -4.3042412 -98.872482
22390000000 -4.2975655 -108.56695 -3.7542272 170.6433 -3.7522726 170.59981 -4.2853498 -99.448875
22400000000 -4.2802854 -109.12843 -3.7691207 170.04655 -3.7658303 170.00177 -4.2682428 -100.02257
22410000000 -4.2626805 -109.69117 -3.7813518 169.45518 -3.7791655 169.4142 -4.2504034 -100.61561
22420000000 -4.244195 -110.23183 -3.7955573 168.85332 -3.7941387 168.81584 -4.2342544 -101.21385
22430000000 -4.2274404 -110.78721 -3.8094985 168.25792 -3.8086772 168.20357 -4.2175884 -101.80209
22440000000 -4.2113833 -111.34147 -3.824919 167.65607 -3.822057 167.62187 -4.2017713 -102.41178
22450000000 -4.193871 -111.88872 -3.8383586 167.06667 -3.8379467 167.02748 -4.1848207 -103.02432
22460000000 -4.176847 -112.44795 -3.8536069 166.48521 -3.8518925 166.43913 -4.1681423 -103.63017
22470000000 -4.160615 -113.00591 -3.86918 165.88101 -3.8685467 165.84065 -4.1494365 -104.24039
22480000000 -4.1449208 -113.55825 -3.8830113 165.28624 -3.88273 165.2429 -4.1293621 -104.8429
22490000000 -4.12887 -114.12487 -3.8982408 164.68726 -3.8978543 164.64206 -4.1089897 -105.45367
22500000000 -4.1135311 -114.70383 -3.9122481 164.09032 -3.9119749 164.04967 -4.0896297 -106.02843
22510000000 -4.0966864 -115.27467 -3.9276979 163.48436 -3.9266908 163.44254 -4.0724792 -106.61089
22520000000 -4.0817814 -115.85652 -3.9411509 162.88388 -3.9394917 162.849 -4.0525188 -107.17019
22530000000 -4.0638723 -116.42836 -3.9557238 162.29662 -3.953836 162.25247 -4.0377131 -107.73463
22540000000 -4.046926 -117.00182 -3.9701772 161.71684 -3.9690983 161.65776 -4.0232091 -108.29812
22550000000 -4.0304942 -117.56991 -3.9855273 161.12138 -3.9828413 161.08023 -4.0097985 -108.87751
22560000000 -4.0140052 -118.13464 -3.9995437 160.5368 -3.9979165 160.49197 -3.996587 -109.46654
22570000000 -3.9963944 -118.69557 -4.0138025 159.9407 -4.0129852 159.89917 -3.9859295 -110.06579
22580000000 -3.9779515 -119.25281 -4.0306082 159.33409 -4.0287824 159.29919 -3.9755597 -110.68642
22590000000 -3.960041 -119.80249 -4.044251 158.74086 -4.0435472 158.70764 -3.9639881 -111.31342
22600000000 -3.9422493 -120.37499 -4.0600038 158.13969 -4.0577769 158.10069 -3.9498446 -111.93935
22610000000 -3.9230061 -120.92388 -4.0760875 157.54355 -4.0738826 157.49478 -3.9339614 -112.57746
22620000000 -3.9055755 -121.46567 -4.0913229 156.94124 -4.0883565 156.89207 -3.9149086 -113.21342
22630000000 -3.8894944 -122.00811 -4.1077986 156.34081 -4.1053567 156.30252 -3.8925242 -113.838
22640000000 -3.8730187 -122.53865 -4.1239629 155.75662 -4.1224303 155.70927 -3.8710434 -114.44868
22650000000 -3.8574402 -123.07011 -4.1389966 155.1657 -4.1381435 155.12297 -3.8490021 -115.03798
22660000000 -3.842593 -123.61347 -4.1552844 154.58615 -4.1535978 154.54285 -3.8275266 -115.61381
22670000000 -3.8270259 -124.17048 -4.1709027 154.00336 -4.1695437 153.9516 -3.8094163 -116.16533
22680000000 -3.8128045 -124.7235 -4.1843767 153.42343 -4.1847038 153.37431 -3.7917306 -116.71227
22690000000 -3.7957788 -125.28269 -4.2000608 152.83771 -4.1988192 152.79901 -3.7789292 -117.25269
22700000000 -3.7797897 -125.85308 -4.215168 152.25723 -4.2131791 152.21831 -3.76738 -117.80164
22710000000 -3.7666712 -126.41504 -4.2300472 151.66331 -4.2275939 151.62242 -3.7566142 -118.35755
22720000000 -3.7517414 -126.96754 -4.243824 151.07407 -4.2428856 151.03539 -3.7468729 -118.94563
22730000000 -3.7352791 -127.53578 -4.2577548 150.48206 -4.2554755 150.43208 -3.7360933 -119.52688
22740000000 -3.7206805 -128.0834 -4.2731276 149.89151 -4.2720089 149.84451 -3.7250354 -120.13166
22750000000 -3.7045457 -128.62718 -4.2890019 149.30067 -4.2879186 149.2567 -3.7132635 -120.75446
22760000000 -3.6885798 -129.15729 -4.3052058 148.72794 -4.3026223 148.68149 -3.697938 -121.36715
22770000000 -3.6738493 -129.68692 -4.3206086 148.1322 -4.3185749 148.09105 -3.6828783 -121.99417
22780000000 -3.660146 -130.22939 -4.3349919 147.55133 -4.3351603 147.50957 -3.6652021 -122.605
22790000000 -3.6481283 -130.7692 -4.3510737 146.96837 -4.3495712 146.93152 -3.646276 -123.19866
22800000000 -3.6332338 -131.304 -4.3642006 146.40062 -4.3642097 146.3414 -3.6284604 -123.78374
22810000000 -3.6201303 -131.84744 -4.3803887 145.81311 -4.3792639 145.77415 -3.610935 -124.35563
22820000000 -3.6105163 -132.40819 -4.3966303 145.2301 -4.3948207 145.20036 -3.5944195 -124.90749
22830000000 -3.598346 -132.96394 -4.4099793 144.64005 -4.4087701 144.59984 -3.5776975 -125.46625
22840000000 -3.5850894 -133.51926 -4.4254498 144.0663 -4.4249897 144.01729 -3.5658808 -126.00218
22850000000 -3.5731494 -134.08202 -4.4406314 143.48079 -4.4373784 143.43835 -3.5526998 -126.54599
22860000000 -3.5619371 -134.65608 -4.4550304 142.88943 -4.4519491 142.84891 -3.540499 -127.09763
22870000000 -3.5480464 -135.21532 -4.4688964 142.31242 -4.467248 142.26256 -3.5305305 -127.66719
22880000000 -3.5356345 -135.7666 -4.4851489 141.72395 -4.4833803 141.67456 -3.5234461 -128.24467
22890000000 -3.5236576 -136.31914 -4.4981098 141.13637 -4.4959006 141.10268 -3.5107477 -128.8166
22900000000 -3.5101585 -136.8669 -4.5127926 140.54361 -4.5118928 140.49904 -3.502243 -129.41708
22910000000 -3.4993081 -137.42627 -4.5274472 139.95743 -4.5264077 139.91628 -3.4923429 -130.00439
22920000000 -3.486553 -137.97157 -4.5435023 139.38251 -4.542788 139.34392 -3.4822772 -130.62036
22930000000 -3.4727409 -138.51469 -4.55832 138.78435 -4.556603 138.75252 -3.4720342 -131.23703
22940000000 -3.4632399 -139.05939 -4.5734386 138.19904 -4.5719299 138.1674 -3.4588356 -131.85588
22950000000 -3.4522252 -139.61987 -4.5893025 137.62149 -4.5875287 137.57845 -3.4452238 -132.46605
22960000000 -3.4380934 -140.17482 -4.6046162 137.01663 -4.6034522 136.97174 -3.4332006 -133.09209
22970000000 -3.426343 -140.72585 -4.6197758 136.42822 -4.6178775 136.37941 -3.4166639 -133.70386
22980000000 -3.4120758 -141.28323 -4.6360097 135.83276 -4.6353683 135.80176 -3.4022901 -134.29105
22990000000 -3.3994939 -141.83376 -4.6539683 135.26268 -4.6519799 135.22054 -3.3859053 -134.88243
23000000000 -3.386375 -142.38618 -4.6708779 134.67877 -4.6695127 134.64088 -3.3696184 -135.45482
23010000000 -3.371649 -142.93567 -4.6864724 134.09857 -4.6862698 134.05887 -3.3545465 -136.02199
23020000000 -3.3570099 -143.47313 -4.7023082 133.52158 -4.7019396 133.47304 -3.3411229 -136.5956
23030000000 -3.345305 -144.02516 -4.7191849 132.93903 -4.7181377 132.89964 -3.3272529 -137.15985
23040000000 -3.3336031 -144.5723 -4.7359538 132.35161 -4.7347531 132.3092 -3.31686 -137.7323
23050000000 -3.3231492 -145.10443 -4.7508759 131.77457 -4.7487221 131.73198 -3.304543 -138.2952
23060000000 -3.3122916 -145.65527 -4.7660942 131.19084 -4.7648044 131.14565 -3.2933409 -138.85556
23070000000 -3.3020151 -146.20418 -4.7815061 130.61572 -4.7798276 130.57635 -3.2843652 -139.42178
23080000000 -3.2915101 -146.7635 -4.797111 130.03474 -4.7957249 129.99393 -3.2753711 -140.00278
23090000000 -3.2812479 -147.31281 -4.8135791 129.4498 -4.8115225 129.41264 -3.2661715 -140.57388
23100000000 -3.2711842 -147.86656 -4.8288298 128.86613 -4.8277116 128.8284 -3.2572539 -141.16805
23110000000 -3.2583895 -148.40817 -4.8444972 128.30786 -4.8430142 128.25958 -3.2472379 -141.76031
23120000000 -3.2478416 -148.96178 -4.8592749 127.72954 -4.8576345 127.68863 -3.2348652 -142.34784
23130000000 -3.2363384 -149.51375 -4.8743086 127.14515 -4.8744464 127.09447 -3.223485 -142.94595
23140000000 -3.223594 -150.05991 -4.8893476 126.56108 -4.8895407 126.52171 -3.2130349 -143.53133
23150000000 -3.2142801 -150.59514 -4.9038196 125.98967 -4.9050574 125.94891 -3.1991878 -144.12773
23160000000 -3.2047985 -151.14348 -4.9197545 125.40374 -4.9196849 125.37331 -3.1860549 -144.71866
23170000000 -3.1944916 -151.6725 -4.9372563 124.83968 -4.9362817 124.80002 -3.1748261 -145.30067
23180000000 -3.1874168 -152.21825 -4.9531779 124.25856 -4.9521122 124.21893 -3.1600718 -145.88918
23190000000 -3.1788056 -152.76949 -4.970088 123.69135 -4.9685979 123.64376 -3.146965 -146.44522
23200000000 -3.1699555 -153.34036 -4.9846873 123.11253 -4.9860663 123.06426 -3.1345348 -147.00661
23210000000 -3.1579902 -153.9062 -4.9998436 122.53328 -5.0000544 122.49936 -3.1231263 -147.57054
23220000000 -3.1473277 -154.47198 -5.0160584 121.96114 -5.0169659 121.91108 -3.1127141 -148.13464
23230000000 -3.1343479 -155.02936 -5.0315161 121.37038 -5.0295091 121.3299 -3.10325 -148.71419
23240000000 -3.1222548 -155.58115 -5.0458059 120.79621 -5.0447268 120.756 -3.0949862 -149.27104
23250000000 -3.1100028 -156.12544 -5.0615163 120.22469 -5.0614543 120.18748 -3.0842242 -149.83562
23260000000 -3.0970852 -156.658 -5.0771408 119.64626 -5.0759678 119.61105 -3.0751004 -150.40817
23270000000 -3.0858893 -157.18436 -5.0923257 119.08376 -5.0914545 119.04073 -3.0677936 -150.99252
23280000000 -3.0747721 -157.70705 -5.1086192 118.49989 -5.1076236 118.47361 -3.058744 -151.56857
23290000000 -3.0679574 -158.22293 -5.121974 117.93651 -5.1206479 117.90046 -3.0479925 -152.15877
23300000000 -3.0600417 -158.74442 -5.1375318 117.3744 -5.136066 117.32423 -3.0382841 -152.74527
23310000000 -3.0521832 -159.26933 -5.1520176 116.81236 -5.1521893 116.75848 -3.0301816 -153.34111
23320000000 -3.0472109 -159.80498 -5.1689324 116.23583 -5.1668739 116.17929 -3.0207946 -153.92957
23330000000 -3.0411823 -160.34511 -5.1822333 115.65977 -5.1839314 115.60807 -3.0115461 -154.52731
23340000000 -3.0353441 -160.9155 -5.1989694 115.07347 -5.1970119 115.03473 -3.0007088 -155.12233
23350000000 -3.0274377 -161.47546 -5.2132845 114.50468 -5.2112126 114.45806 -2.9902444 -155.70129
23360000000 -3.0172429 -162.04994 -5.2279382 113.92226 -5.2269998 113.87376 -2.9797709 -156.27473
23370000000 -3.0072765 -162.62289 -5.2419496 113.35735 -5.2424369 113.29542 -2.9662104 -156.84708
23380000000 -2.9979367 -163.19669 -5.2601972 112.77381 -5.2579341 112.7259 -2.9538186 -157.4124
23390000000 -2.9865901 -163.75388 -5.2778792 112.2081 -5.277657 112.16746 -2.9427836 -157.97316
23400000000 -2.9748328 -164.29878 -5.2942667 111.64617 -5.293499 111.59975 -2.9308281 -158.53514
23410000000 -2.9652438 -164.84727 -5.3103213 111.06715 -5.3095036 111.03175 -2.9195611 -159.0968
23420000000 -2.9537051 -165.38593 -5.3250499 110.50292 -5.3254533 110.46696 -2.9090388 -159.64862
23430000000 -2.942385 -165.92538 -5.3402362 109.94624 -5.3403153 109.90223 -2.8998013 -160.19057
23440000000 -2.9346721 -166.46262 -5.3573322 109.37655 -5.3584323 109.34946 -2.8921254 -160.74556
23450000000 -2.9271722 -167.00716 -5.3714538 108.82339 -5.3741674 108.78994 -2.8822215 -161.29684
23460000000 -2.9207666 -167.57251 -5.3886309 108.24028 -5.3879309 108.20672 -2.8732197 -161.8401
23470000000 -2.9114707 -168.11647 -5.4018769 107.69099 -5.4010334 107.64929 -2.86555 -162.39676
23480000000 -2.9058347 -168.69478 -5.418684 107.11834 -5.4174156 107.07288 -2.8574975 -162.94244
23490000000 -2.894449 -169.25038 -5.4327493 106.55977 -5.4314952 106.51637 -2.8506389 -163.50301
23500000000 -2.8829665 -169.80176 -5.4469075 105.9987 -5.4471226 105.94895 -2.8432574 -164.06595
23510000000 -2.8726294 -170.33775 -5.4627151 105.436 -5.4615698 105.38415 -2.8349388 -164.63315
23520000000 -2.8600957 -170.86859 -5.4780025 104.86535 -5.475956 104.82393 -2.8287497 -165.2139
23530000000 -2.851727 -171.38011 -5.4940071 104.30502 -5.4928932 104.25891 -2.8210762 -165.78986
23540000000 -2.8391728 -171.89545 -5.5084758 103.75228 -5.5081916 103.6925 -2.814461 -166.37871
23550000000 -2.8307068 -172.38968 -5.5257254 103.18339 -5.5245237 103.13834 -2.8078642 -166.95894
23560000000 -2.823878 -172.89607 -5.5389705 102.60663 -5.5386682 102.57838 -2.7983479 -167.55499
23570000000 -2.8188856 -173.41075 -5.5543666 102.06527 -5.552916 102.01382 -2.790632 -168.13748
23580000000 -2.8146901 -173.93213 -5.5695438 101.49453 -5.5681567 101.45676 -2.7826233 -168.72459
23590000000 -2.8109477 -174.47314 -5.5825315 100.90922 -5.5814791 100.87083 -2.7744944 -169.29939
23600000000 -2.8078251 -175.0076 -5.5968232 100.36135 -5.595695 100.31342 -2.7654264 -169.88147
23610000000 -2.8018975 -175.57332 -5.6101179 99.785698 -5.609004 99.74556 -2.757689 -170.45212
23620000000 -2.7956784 -176.13689 -5.6264277 99.221825 -5.624476 99.163109 -2.7482986 -171.02347
23630000000 -2.7880361 -176.70288 -5.6413217 98.643654 -5.6410356 98.59491 -2.7401135 -171.58784
23640000000 -2.7798789 -177.26523 -5.6580305 98.080933 -5.6559172 98.036713 -2.7312722 -172.14877
23650000000 -2.7703891 -177.8194 -5.6721845 97.526367 -5.6705899 97.475471 -2.7229955 -172.71349
23660000000 -2.7600255 -178.3728 -5.6865449 96.959854 -5.6875529 96.904732 -2.7159331 -173.28357
23670000000 -2.7505066 -178.92262 -5.7008419 96.398003 -5.7017932 96.352089 -2.707221 -173.84184
23680000000 -2.7429101 -179.45387 -5.7165284 95.836082 -5.7157645 95.799271 -2.6992564 -174.41792
23690000000 -2.7335358 -179.98595 -5.7300878 95.283478 -5.7281933 95.241554 -2.6896338 -174.97159
23700000000 -2.7275379 179.4742 -5.7443786 94.712372 -5.7425284 94.672638 -2.6811335 -175.5368
23710000000 -2.7188969 178.9449 -5.7583981 94.153908 -5.7589078 94.103394 -2.6746359 -176.10242
23720000000 -2.7114091 178.40527 -5.7734427 93.591545 -5.7722745 93.538872 -2.6670182 -176.66475
23730000000 -2.7056673 177.86966 -5.7890654 93.027222 -5.7873907 92.960548 -2.6594889 -177.23207
23740000000 -2.6989925 177.33118 -5.8039756 92.459167 -5.8031912 92.425224 -2.65204 -177.79745
23750000000 -2.6925633 176.7852 -5.8172674 91.899979 -5.8177977 91.851105 -2.6430397 -178.36185
23760000000 -2.6864512 176.22853 -5.8314757 91.332962 -5.8307557 91.287071 -2.6354783 -178.91348
23770000000 -2.6769171 175.68343 -5.8472795 90.781631 -5.8462262 90.730988 -2.627387 -179.4733
23780000000 -2.6712363 175.13385 -5.8625035 90.22541 -5.8605843 90.166862 -2.6198411 179.97289
23790000000 -2.6617379 174.58105 -5.8752069 89.661789 -5.8748655 89.613632 -2.6124389 179.40639
23800000000 -2.6552277 174.03757 -5.8905621 89.105103 -5.8908038 89.060432 -2.6051738 178.86096
23810000000 -2.6497724 173.48793 -5.9069891 88.54435 -5.904768 88.491249 -2.5975475 178.31239
23820000000 -2.6442568 172.93904 -5.9209471 87.972878 -5.920836 87.920563 -2.5904331 177.75827
23830000000 -2.6377659 172.40092 -5.9352546 87.405113 -5.9343467 87.352066 -2.5848813 177.19995
23840000000 -2.631207 171.8401 -5.9500456 86.84391 -5.9497075 86.790535 -2.5784078 176.64728
23850000000 -2.6240938 171.28667 -5.9633055 86.283913 -5.9642324 86.228508 -2.572418 176.08931
23860000000 -2.6180933 170.73882 -5.9782991 85.733276 -5.9785357 85.677155 -2.5675464 175.51643
23870000000 -2.6104131 170.18837 -5.9933648 85.161171 -5.9944053 85.123505 -2.5619586 174.94736
23880000000 -2.6005757 169.64548 -6.0075793 84.61425 -6.0080452 84.557747 -2.5552201 174.38187
23890000000 -2.5915892 169.09943 -6.0214477 84.061378 -6.0208387 84.005409 -2.5485291 173.80725
23900000000 -2.5837145 168.55869 -6.0381284 83.490952 -6.0392036 83.440269 -2.542752 173.23746
23910000000 -2.5747533 168.0313 -6.0559464 82.93161 -6.054965 82.881256 -2.5360894 172.65736
23920000000 -2.5684614 167.49915 -6.0707021 82.36792 -6.0701799 82.313553 -2.5275915 172.0809
23930000000 -2.561408 166.97794 -6.0850253 81.809334 -6.0854831 81.759521 -2.5187132 171.50749
23940000000 -2.5534689 166.44243 -6.1003599 81.23999 -6.1002197 81.201996 -2.5117319 170.9474
23950000000 -2.5475574 165.92644 -6.1147914 80.690323 -6.1158133 80.643234 -2.5020313 170.37816
23960000000 -2.540483 165.40259 -6.1300278 80.133598 -6.1319222 80.088837 -2.497623 169.81233
23970000000 -2.5327389 164.88347 -6.1443319 79.590088 -6.1436582 79.5448 -2.4887187 169.26338
23980000000 -2.5275478 164.36197 -6.1573343 79.05426 -6.1563659 79.00843 -2.4790409 168.70358
23990000000 -2.5195334 163.84352 -6.1701889 78.499893 -6.1710782 78.456696 -2.4740591 168.15738
24000000000 -2.5130305 163.30518 -6.1850042 77.953285 -6.1860075 77.899353 -2.467685 167.62215
24010000000 -2.5078089 162.77872 -6.2010975 77.39801 -6.2013783 77.341911 -2.4608212 167.07053
24020000000 -2.5013456 162.24692 -6.2147126 76.837379 -6.2142091 76.785637 -2.4552653 166.52342
24030000000 -2.4962049 161.72041 -6.2299929 76.28817 -6.2311597 76.23568 -2.4494934 165.97607
24040000000 -2.4909506 161.18941 -6.2459917 75.724617 -6.2457395 75.671638 -2.4446731 165.42105
24050000000 -2.4874401 160.65599 -6.2577252 75.163734 -6.2579832 75.119942 -2.4390047 164.86871
24060000000 -2.483242 160.12563 -6.2706742 74.608376 -6.2697172 74.554214 -2.4343696 164.30379
24070000000 -2.479121 159.58817 -6.282268 74.048141 -6.2827268 73.995811 -2.4297583 163.7469
24080000000 -2.4760051 159.05457 -6.2949591 73.490326 -6.2947154 73.434547 -2.42554 163.17644
24090000000 -2.4739296 158.50482 -6.3069124 72.924446 -6.3067517 72.874847 -2.4196527 162.60512
24100000000 -2.4701242 157.94284 -6.3209453 72.363358 -6.3200817 72.321365 -2.4147346 162.03905
24110000000 -2.4660892 157.37688 -6.3344269 71.797356 -6.3346548 71.752045 -2.4106469 161.47717
24120000000 -2.4610238 156.80975 -6.3476272 71.231583 -6.3468695 71.192055 -2.4045336 160.92154
24130000000 -2.4563291 156.24986 -6.3649364 70.686417 -6.3635759 70.631638 -2.3991752 160.35474
24140000000 -2.4495015 155.68507 -6.3797431 70.113007 -6.3781209 70.065842 -2.3946228 159.7973
24150000000 -2.4436646 155.12187 -6.3950033 69.551857 -6.3957195 69.507545 -2.3871746 159.23531
24160000000 -2.4363315 154.56882 -6.4112449 68.98642 -6.4117823 68.945229 -2.3808062 158.66922
24170000000 -2.4285283 154.01529 -6.4266357 68.426445 -6.4268889 68.39193 -2.3736846 158.10779
24180000000 -2.4211094 153.4662 -6.4406404 67.87542 -6.4406276 67.83181 -2.3668687 157.54855
24190000000 -2.4125526 152.92461 -6.4564443 67.315453 -6.456429 67.273018 -2.3599229 156.99985
24200000000 -2.4041839 152.38399 -6.4713483 66.755707 -6.471055 66.723068 -2.3539746 156.44986
24210000000 -2.3980207 151.85541 -6.4868207 66.214493 -6.4865546 66.176949 -2.3472426 155.91496
24220000000 -2.3903711 151.31662 -6.5006375 65.657143 -6.5003591 65.611435 -2.3405061 155.37221
24230000000 -2.3831007 150.79408 -6.5138021 65.11174 -6.5135474 65.070457 -2.3335257 154.83101
24240000000 -2.3778334 150.27545 -6.5272608 64.570526 -6.5276098 64.517258 -2.3277938 154.29533
24250000000 -2.3719566 149.75241 -6.5406518 63.999268 -6.5409169 63.964184 -2.3252058 153.74913
24260000000 -2.3689263 149.23477 -6.5546746 63.461185 -6.5532727 63.414146 -2.3193388 153.21095
24270000000 -2.3645937 148.70238 -6.5679173 62.916965 -6.5695662 62.872494 -2.316004 152.67604
24280000000 -2.3603423 148.15932 -6.5828209 62.365891 -6.5818062 62.329868 -2.3131347 152.13091
24290000000 -2.3566148 147.61708 -6.5935416 61.821335 -6.5939169 61.776863 -2.3091998 151.58119
24300000000 -2.3526025 147.06602 -6.6087985 61.279053 -6.6084623 61.23333 -2.3075614 151.0291
24310000000 -2.3461783 146.52727 -6.6201625 60.727856 -6.620935 60.697029 -2.3025281 150.47354
24320000000 -2.3413701 145.97513 -6.6354775 60.168259 -6.6357226 60.117298 -2.3000243 149.89217
24330000000 -2.3356354 145.43477 -6.6484246 59.607853 -6.6487083 59.569248 -2.2932138 149.32713
24340000000 -2.3278198 144.89204 -6.6638508 59.0504 -6.6637473 59.014385 -2.2883849 148.74274
24350000000 -2.3217335 144.35808 -6.6756592 58.496704 -6.6771545 58.454773 -2.2806404 148.16675
24360000000 -2.313513 143.84351 -6.6914334 57.94585 -6.6916122 57.902657 -2.2735755 147.59909
24370000000 -2.3055704 143.32335 -6.7081242 57.402134 -6.7061491 57.365086 -2.2667565 147.05263
24380000000 -2.2993939 142.81876 -6.7225647 56.860046 -6.7222304 56.812954 -2.2583051 146.49608
24390000000 -2.292531 142.30989 -6.7360978 56.326973 -6.7378063 56.276478 -2.2521353 145.9595
24400000000 -2.286335 141.80753 -6.7511406 55.786705 -6.7493658 55.744911 -2.244314 145.43439
24410000000 -2.2840185 141.31181 -6.7647848 55.264118 -6.7648187 55.213814 -2.2392318 144.90546
24420000000 -2.2810745 140.80031 -6.7766962 54.724155 -6.7774496 54.662895 -2.2347252 144.37837
24430000000 -2.2791753 140.28448 -6.7891531 54.171162 -6.7888074 54.123608 -2.2315259 143.85719
24440000000 -2.2778447 139.7467 -6.8023829 53.613708 -6.801815 53.582802 -2.2280896 143.32698
24450000000 -2.2753873 139.19485 -6.8105936 53.067379 -6.8118324 53.03643 -2.225369 142.80104
24460000000 -2.2733281 138.65059 -6.8248878 52.511257 -6.8234491 52.467442 -2.2245626 142.2477
24470000000 -2.2715738 138.09708 -6.836123 51.968971 -6.8357725 51.922855 -2.2205644 141.70093
24480000000 -2.2694299 137.5388 -6.8488808 51.426331 -6.8474727 51.382381 -2.2172303 141.14757
24490000000 -2.2635496 136.97871 -6.8607469 50.88097 -6.8621235 50.826206 -2.2146971 140.58875
24500000000 -2.2585444 136.42581 -6.8768392 50.331215 -6.8756475 50.291195 -2.2100291 140.03198
24510000000 -2.2512159 135.87633 -6.8888874 49.777351 -6.8882551 49.727795 -2.2060513 139.47742
24520000000 -2.2444923 135.32523 -6.9046288 49.203217 -6.9032755 49.17981 -2.2017641 138.9225
24530000000 -2.2388928 134.78955 -6.917572 48.661453 -6.9156508 48.620575 -2.1960745 138.37024
24540000000 -2.2329791 134.26405 -6.9294953 48.101948 -6.9279695 48.0644 -2.1905439 137.8149
24550000000 -2.2270796 133.73727 -6.9428334 47.557594 -6.9422469 47.521599 -2.1862545 137.27847
24560000000 -2.220942 133.22009 -6.9553857 47.00848 -6.9525247 46.96619 -2.182328 136.73016
24570000000 -2.2181787 132.69821 -6.9698896 46.468147 -6.9681406 46.434864 -2.1789484 136.18817
24580000000 -2.2135141 132.17294 -6.982264 45.917995 -6.9814067 45.876293 -2.1770785 135.63727
24590000000 -2.211297 131.64688 -6.9956717 45.379173 -6.9937868 45.325867 -2.1762662 135.08549
24600000000 -2.2088633 131.12445 -7.0088143 44.838428 -7.0078363 44.782444 -2.1745214 134.52161
24610000000 -2.2057631 130.5954 -7.0227809 44.286484 -7.0210667 44.23534 -2.1715927 133.94032
24620000000 -2.201308 130.05733 -7.035079 43.735046 -7.0325937 43.698067 -2.1669328 133.37642
24630000000 -2.1958025 129.51193 -7.0499244 43.187908 -7.0484862 43.138798 -2.1644616 132.80676
24640000000 -2.1914277 128.97914 -7.0639439 42.632484 -7.0621371 42.577972 -2.1573236 132.23341
24650000000 -2.1849585 128.44159 -7.077692 42.075455 -7.0770822 42.042248 -2.1521337 131.66541
24660000000 -2.1806691 127.91074 -7.0931616 41.527992 -7.09308 41.476414 -2.1450438 131.10143
24670000000 -2.1753368 127.38418 -7.1075125 40.982765 -7.1069055 40.933189 -2.1358354 130.54713
24680000000 -2.169874 126.86836 -7.1209831 40.447304 -7.1212053 40.40567 -2.1279058 130.01332
24690000000 -2.1651635 126.35622 -7.1339183 39.900028 -7.13414 39.858475 -2.1202681 129.46974
24700000000 -2.1600547 125.84216 -7.1464014 39.371872 -7.1462002 39.340534 -2.1143327 128.95125
24710000000 -2.155664 125.33023 -7.1604595 38.826683 -7.1606975 38.790154 -2.1103556 128.42003
24720000000 -2.1521487 124.8275 -7.1723247 38.312359 -7.172627 38.259396 -2.1049759 127.9143
24730000000 -2.1480198 124.32285 -7.1843963 37.780212 -7.1838708 37.71841 -2.1025653 127.38605
24740000000 -2.1459527 123.82094 -7.1989174 37.234467 -7.1988163 37.194801 -2.1010158 126.87373
24750000000 -2.1429353 123.29763 -7.2108326 36.681301 -7.2117238 36.640961 -2.0979843 126.33907
24760000000 -2.1420205 122.78819 -7.2224846 36.154579 -7.2238007 36.107658 -2.0965939 125.80799
24770000000 -2.1411235 122.26912 -7.23455 35.606323 -7.2323947 35.564774 -2.0931077 125.27126
24780000000 -2.1415744 121.74107 -7.2459474 35.064236 -7.2443633 35.01178 -2.0903497 124.72395
24790000000 -2.1417136 121.19761 -7.2578735 34.526119 -7.2569385 34.486572 -2.0873318 124.19847
24800000000 -2.1417193 120.66335 -7.2707109 33.99741 -7.2689576 33.952881 -2.0845234 123.65186
24810000000 -2.1394446 120.11664 -7.2801347 33.459057 -7.2811413 33.419281 -2.08005 123.11398
24820000000 -2.1378448 119.55876 -7.29214 32.915649 -7.2924242 32.879166 -2.0772491 122.57937
24830000000 -2.1338024 119.00053 -7.3045702 32.375996 -7.3033271 32.33437 -2.0738759 122.04366
24840000000 -2.128238 118.45357 -7.3149023 31.847048 -7.3156571 31.807085 -2.0711792 121.51904
24850000000 -2.1222582 117.89803 -7.3273149 31.298023 -7.3260236 31.246479 -2.0679753 120.98389
24860000000 -2.1174347 117.36436 -7.3413963 30.750431 -7.3412743 30.696428 -2.0661709 120.4341
24870000000 -2.1105838 116.83566 -7.3540554 30.205904 -7.3536625 30.15836 -2.0615599 119.89251
24880000000 -2.1054924 116.32569 -7.3681054 29.67057 -7.3662734 29.620079 -2.0594461 119.33897
24890000000 -2.09975 115.81464 -7.380785 29.124617 -7.3785319 29.088284 -2.0554228 118.79084
24900000000 -2.0964901 115.31721 -7.3915052 28.5931 -7.3911767 28.551361 -2.0519917 118.23921
24910000000 -2.0931437 114.82558 -7.406189 28.072412 -7.4069629 28.021063 -2.0492208 117.68662
24920000000 -2.0886204 114.32407 -7.4167199 27.526108 -7.4159074 27.474861 -2.0447052 117.13625
24930000000 -2.0880916 113.81466 -7.4294362 26.996408 -7.4288402 26.959414 -2.0411944 116.58302
24940000000 -2.0869014 113.29493 -7.4400206 26.458462 -7.4391398 26.4037 -2.036516 116.04669
24950000000 -2.0853617 112.77625 -7.4527144 25.914299 -7.4523897 25.861952 -2.0329535 115.49732
24960000000 -2.0842574 112.24405 -7.4635596 25.375519 -7.4614325 25.332031 -2.0280266 114.95534
24970000000 -2.0826797 111.70882 -7.4758792 24.841352 -7.4765906 24.788834 -2.023716 114.41622
24980000000 -2.0802464 111.17941 -7.4874291 24.309731 -7.4868731 24.254469 -2.0181947 113.88695
24990000000 -2.0768118 110.63677 -7.5000997 23.762068 -7.5012617 23.706856 -2.0163596 113.34167
25000000000 -2.0724714 110.10265 -7.51366 23.210985 -7.512794 23.155596 -2.0108309 112.80208
25010000000 -2.0670333 109.57652 -7.5254636 22.666128 -7.5254312 22.625118 -2.0077424 112.26621
25020000000 -2.0623918 109.05341 -7.5394368 22.118143 -7.537714 22.082697 -2.0042214 111.726
25030000000 -2.0584455 108.53785 -7.5507073 21.599758 -7.5515399 21.545992 -2.0008118 111.19814
25040000000 -2.0539756 108.02431 -7.5617261 21.048904 -7.5645599 21.012836 -1.9987611 110.65446
25050000000 -2.0512693 107.51159 -7.5736957 20.503017 -7.5745921 20.468899 -1.994705 110.11419
25060000000 -2.049161 107.01493 -7.584466 19.972857 -7.5840764 19.935438 -1.991589 109.5621
25070000000 -2.0487239 106.50574 -7.5955739 19.445946 -7.595109 19.391592 -1.9901589 109.01713
25080000000 -2.048454 105.99155 -7.6090064 18.893892 -7.6074333 18.853342 -1.9866245 108.46765
25090000000 -2.0472353 105.47559 -7.6190314 18.363558 -7.6180239 18.3304 -1.9846723 107.923
25100000000 -2.0475152 104.94601 -7.6315684 17.81679 -7.628366 17.775803 -1.9812348 107.37012
25110000000 -2.0460031 104.41765 -7.6414733 17.281172 -7.6417937 17.241207 -1.9781264 106.81878
25120000000 -2.045203 103.87673 -7.6567945 16.734785 -7.6536436 16.699041 -1.9763482 106.26627
25130000000 -2.0434515 103.33437 -7.6660924 16.196478 -7.6648521 16.157442 -1.9707527 105.72109
25140000000 -2.0423117 102.79316 -7.6785622 15.668167 -7.679132 15.615705 -1.9656484 105.19893
25150000000 -2.0396197 102.25195 -7.6923003 15.11463 -7.6908355 15.072889 -1.9602004 104.6675
25160000000 -2.0369265 101.71131 -7.7002897 14.568802 -7.7004557 14.533644 -1.9537525 104.15207
25170000000 -2.0323608 101.1702 -7.7106371 14.035688 -7.7084999 13.996524 -1.9507631 103.63615
25180000000 -2.0314794 100.63495 -7.7221813 13.492589 -7.7214742 13.458421 -1.94507 103.11129
25190000000 -2.02896 100.09824 -7.7328401 12.974851 -7.7306209 12.918777 -1.9416373 102.60299
25200000000 -2.0262811 99.552544 -7.7442966 12.441104 -7.7427549 12.37965 -1.9393917 102.08257
25210000000 -2.0231586 99.021645 -7.7554903 11.913379 -7.7559338 11.865854 -1.9377325 101.57745
25220000000 -2.0189066 98.484024 -7.7670159 11.38764 -7.7659035 11.342841 -1.9389172 101.05828
25230000000 -2.0149214 97.952881 -7.7796793 10.864023 -7.7801566 10.808507 -1.9409881 100.53194
25240000000 -2.0112092 97.426849 -7.79251 10.313203 -7.7918448 10.273561 -1.9412532 99.982819
25250000000 -2.0078664 96.910622 -7.8046336 9.8064566 -7.8047462 9.7429199 -1.9397967 99.437088
25260000000 -2.0039139 96.400002 -7.813838 9.274087 -7.8140025 9.2212114 -1.9378364 98.898651
25270000000 -1.9984826 95.885208 -7.8228641 8.7209892 -7.820868 8.6733274 -1.9351723 98.34549
25280000000 -1.9947443 95.382385 -7.8316836 8.1835546 -7.8298912 8.1372671 -1.9305772 97.7985
25290000000 -1.992349 94.882301 -7.8418026 7.6570878 -7.8415585 7.6124663 -1.928908 97.256714
25300000000 -1.9918351 94.379326 -7.8527584 7.1281877 -7.8512855 7.089088 -1.9240968 96.708733
25310000000 -1.9902215 93.876129 -7.8626614 6.6040139 -7.8621988 6.5470543 -1.9204497 96.156059
25320000000 -1.9888074 93.36274 -7.8755503 6.0714583 -7.8751631 6.0259218 -1.9183528 95.628891
25330000000 -1.9879355 92.856544 -7.8878207 5.54421 -7.8849678 5.5013623 -1.918098 95.089195
25340000000 -1.9856839 92.339394 -7.8965373 5.0173669 -7.896832 4.9786944 -1.9160967 94.543129
25350000000 -1.9851547 91.813255 -7.9075294 4.4845347 -7.9087596 4.4323926 -1.9129847 94.007767
25360000000 -1.9839125 91.286263 -7.9176259 3.9417138 -7.9172568 3.8933253 -1.9108543 93.458275
25370000000 -1.9808528 90.747063 -7.9262505 3.3890841 -7.9268517 3.3510506 -1.9078622 92.921211
25380000000 -1.9783733 90.22982 -7.9373341 2.8559999 -7.9367828 2.805203 -1.9032116 92.37233
25390000000 -1.9749538 89.693611 -7.9487104 2.3144152 -7.9477892 2.2665904 -1.9008931 91.83429
25400000000 -1.9731443 89.161446 -7.958931 1.7710224 -7.9589329 1.7380065 -1.896713 91.304153
25410000000 -1.9713657 88.630013 -7.9708815 1.2254313 -7.9694777 1.1926957 -1.8912112 90.776367
25420000000 -1.9683673 88.104393 -7.9826646 0.69092959 -7.9828234 0.65876096 -1.8872383 90.246475
25430000000 -1.9677858 87.587906 -7.9903569 0.18031809 -7.9899001 0.13481686 -1.8799357 89.738235
25440000000 -1.9665744 87.05558 -8.0025663 -0.35459793 -8.0018005 -0.39384508 -1.8779117 89.221161
25450000000 -1.9639763 86.54364 -8.0101833 -0.88061684 -8.0107393 -0.9221648 -1.8739377 88.712189
25460000000 -1.9601439 86.017143 -8.0224361 -1.4165461 -8.0216331 -1.4584123 -1.8744993 88.188805
25470000000 -1.957324 85.488396 -8.0331955 -1.9407125 -8.0307007 -1.9844018 -1.8761142 87.667236
25480000000 -1.9545368 84.959 -8.0418968 -2.4797759 -8.0397558 -2.5180962 -1.8780506 87.136864
25490000000 -1.9518285 84.437408 -8.0504551 -3.0026524 -8.0503244 -3.0517833 -1.8767036 86.609703
25500000000 -1.9505595 83.891228 -8.0615768 -3.555408 -8.0600424 -3.5972674 -1.8780174 86.073883
25510000000 -1.9471049 83.375153 -8.068469 -4.0940404 -8.0696564 -4.1296368 -1.8773875 85.520416
25520000000 -1.9459225 82.84758 -8.0789423 -4.6246386 -8.0790901 -4.6739073 -1.8739214 84.965508
25530000000 -1.9424745 82.317551 -8.0913963 -5.1717095 -8.0901527 -5.2088051 -1.8724754 84.405296
25540000000 -1.939134 81.798363 -8.098959 -5.7125702 -8.1013746 -5.7466865 -1.869463 83.834465
25550000000 -1.9364643 81.276611 -8.1116047 -6.2362337 -8.1117983 -6.2808838 -1.8663402 83.277199
25560000000 -1.9322785 80.762337 -8.1241426 -6.7602477 -8.1219444 -6.7952948 -1.8632278 82.737022
25570000000 -1.9281294 80.251373 -8.1332407 -7.2954559 -8.1329679 -7.3292713 -1.8593764 82.196159
25580000000 -1.9251198 79.737045 -8.1456757 -7.8123474 -8.1446333 -7.8645668 -1.8545707 81.66021
25590000000 -1.9226824 79.217728 -8.1568441 -8.3451805 -8.1565704 -8.3889208 -1.8515204 81.130821
25600000000 -1.9219135 78.706367 -8.1674137 -8.8673801 -8.1662493 -8.9156208 -1.847037 80.624695
25610000000 -1.9197035 78.18988 -8.1769295 -9.4052849 -8.1770582 -9.4580421 -1.8459491 80.105469
25620000000 -1.9178448 77.688759 -8.1859732 -9.9404421 -8.1870975 -9.9733572 -1.8429282 79.593254
25630000000 -1.9169937 77.165672 -8.1957378 -10.475922 -8.1948299 -10.517293 -1.8416487 79.079796
25640000000 -1.9157828 76.662773 -8.2042427 -10.998458 -8.2037249 -11.051075 -1.8426931 78.546555
25650000000 -1.9143051 76.1539 -8.2118587 -11.520892 -8.2118177 -11.567699 -1.8424834 78.01609
25660000000 -1.9138011 75.627357 -8.2229376 -12.078912 -8.2207451 -12.109448 -1.8439637 77.466934
25670000000 -1.9121621 75.102577 -8.231986 -12.595169 -8.2300749 -12.642375 -1.8456913 76.922974
25680000000 -1.9113419 74.55909 -8.2393742 -13.14199 -8.2410507 -13.183125 -1.844873 76.374695
25690000000 -1.9113958 74.037964 -8.2498465 -13.676589 -8.2504511 -13.708142 -1.8422159 75.814774
25700000000 -1.9097898 73.497223 -8.2573748 -14.209981 -8.2580595 -14.258057 -1.8402324 75.254158
25710000000 -1.9100196 72.963409 -8.2699766 -14.749645 -8.2690039 -14.787848 -1.8361441 74.702591
25720000000 -1.9090352 72.426247 -8.2792978 -15.282277 -8.279809 -15.32719 -1.8318751 74.152504
25730000000 -1.9051291 71.891891 -8.2900114 -15.812293 -8.2897615 -15.853359 -1.8288761 73.608192
25740000000 -1.9024589 71.360825 -8.2979689 -16.346851 -8.299922 -16.401411 -1.8246512 73.082047
25750000000 -1.8967459 70.831528 -8.3104725 -16.895304 -8.3084459 -16.933939 -1.8226761 72.543747
25760000000 -1.8950151 70.30777 -8.317812 -17.423412 -8.3188963 -17.470188 -1.8179728 72.019928
25770000000 -1.8924073 69.783928 -8.3288431 -17.954651 -8.3276272 -18.006998 -1.8155842 71.49556
25780000000 -1.8882489 69.258217 -8.3374224 -18.504227 -8.3383312 -18.533703 -1.8148631 70.972267
25790000000 -1.8844197 68.739212 -8.3474455 -19.032406 -8.3480148 -19.071718 -1.8141516 70.442673
25800000000 -1.8848013 68.210007 -8.3574839 -19.568317 -8.357275 -19.604879 -1.8120052 69.921013
25810000000 -1.8825461 67.697617 -8.3651495 -20.093763 -8.3666878 -20.129322 -1.8102878 69.387474
25820000000 -1.8800654 67.171005 -8.374649 -20.620939 -8.3732309 -20.667377 -1.8069504 68.846146
25830000000 -1.878459 66.633011 -8.3836203 -21.1616 -8.3842154 -21.201576 -1.8051413 68.311249
25840000000 -1.8740609 66.110077 -8.3955517 -21.692738 -8.393858 -21.72365 -1.8053516 67.780045
25850000000 -1.8715787 65.592026 -8.4045782 -22.232809 -8.4039898 -22.25647 -1.8031561 67.236649
25860000000 -1.8675799 65.082199 -8.4150801 -22.74502 -8.4150953 -22.780468 -1.8003134 66.701065
25870000000 -1.8653071 64.558586 -8.4244785 -23.287615 -8.4246578 -23.32489 -1.7963597 66.166862
25880000000 -1.8638635 64.045486 -8.4341602 -23.815331 -8.4342918 -23.847624 -1.7927393 65.651649
25890000000 -1.859908 63.534798 -8.4420338 -24.326078 -8.4434519 -24.365381 -1.7907374 65.130463
25900000000 -1.8565983 63.025215 -8.4503517 -24.851877 -8.4533224 -24.902729 -1.7890527 64.628716
25910000000 -1.8546028 62.522038 -8.4573183 -25.389866 -8.4591007 -25.418922 -1.7867205 64.108315
25920000000 -1.8529963 62.018353 -8.4668388 -25.912899 -8.4681845 -25.943695 -1.7863772 63.581924
25930000000 -1.8530617 61.512085 -8.4745102 -26.445812 -8.4736519 -26.468798 -1.7874694 63.058426
25940000000 -1.8509039 60.997837 -8.4845924 -26.957067 -8.4836054 -27.004988 -1.7904055 62.532536
25950000000 -1.8483608 60.492992 -8.4910488 -27.502924 -8.4911566 -27.544994 -1.7925977 61.978619
25960000000 -1.8493217 59.973885 -8.4992638 -28.025497 -8.4986887 -28.073969 -1.7929927 61.418789
25970000000 -1.8478129 59.477745 -8.5079861 -28.559597 -8.5069523 -28.603867 -1.7938792 60.857067
25980000000 -1.8450464 58.95924 -8.5143509 -29.096722 -8.5142479 -29.13229 -1.7919598 60.297234
25990000000 -1.842394 58.461155 -8.5223274 -29.640329 -8.5209208 -29.667702 -1.7931503 59.725662
26000000000 -1.8412191 57.964825 -8.5342894 -30.152397 -8.5335999 -30.193716 -1.7932485 59.153194
26010000000 -1.8400962 57.448277 -8.5419436 -30.688885 -8.5393133 -30.739916 -1.7892946 58.594746
26020000000 -1.8393083 56.940254 -8.5491066 -31.2327 -8.5473824 -31.273523 -1.785777 58.034027
26030000000 -1.8377943 56.434582 -8.5557394 -31.770773 -8.5549402 -31.817671 -1.7843966 57.47945
26040000000 -1.8373058 55.925732 -8.5643091 -32.304531 -8.5638561 -32.333363 -1.7810855 56.935551
26050000000 -1.8368324 55.407059 -8.5714111 -32.83194 -8.5702972 -32.876144 -1.7764521 56.397614
26060000000 -1.8396767 54.872185 -8.578393 -33.370403 -8.5783939 -33.417 -1.774233 55.857841
26070000000 -1.8402675 54.333832 -8.5893602 -33.918365 -8.5862083 -33.956776 -1.773039 55.324844
26080000000 -1.8399307 53.802246 -8.5964251 -34.447689 -8.5935631 -34.485069 -1.7711362 54.794464
26090000000 -1.8402861 53.254749 -8.6029491 -34.987259 -8.6035261 -35.030819 -1.7705185 54.256805
26100000000 -1.8384141 52.715126 -8.6095924 -35.523209 -8.6119967 -35.576344 -1.7702239 53.71545
26110000000 -1.8382465 52.17709 -8.6203985 -36.065269 -8.6206741 -36.105087 -1.7690006 53.178093
26120000000 -1.8363981 51.641518 -8.6312609 -36.615513 -8.6286602 -36.65107 -1.7670491 52.620502
26130000000 -1.8347727 51.113968 -8.6401119 -37.148708 -8.6383266 -37.200699 -1.7674783 52.07188
26140000000 -1.8331481 50.579983 -8.6494007 -37.698013 -8.6473389 -37.739044 -1.7672831 51.52346
26150000000 -1.8299309 50.04921 -8.6571846 -38.226757 -8.6566973 -38.265263 -1.7644508 50.984821
26160000000 -1.828858 49.53215 -8.6641979 -38.76075 -8.6647968 -38.806774 -1.7623249 50.438255
26170000000 -1.8269467 49.009319 -8.6726732 -39.284084 -8.672472 -39.319328 -1.7610534 49.906322
26180000000 -1.8245082 48.468536 -8.6811323 -39.833057 -8.6798296 -39.845516 -1.7578379 49.369659
26190000000 -1.8236498 47.943211 -8.6875687 -40.36277 -8.6879711 -40.39399 -1.7561039 48.824146
26200000000 -1.8227158 47.410198 -8.6975441 -40.903889 -8.6964369 -40.921654 -1.7536757 48.304825
26210000000 -1.8187314 46.874142 -8.7028494 -41.418373 -8.7031994 -41.451965 -1.7524556 47.77512
26220000000 -1.8152571 46.333225 -8.7107458 -41.970871 -8.7101479 -41.998348 -1.750104 47.243027
26230000000 -1.8127643 45.814728 -8.7195587 -42.499989 -8.7180433 -42.532322 -1.7485355 46.714668
26240000000 -1.8077428 45.29887 -8.7256279 -43.022552 -8.72686 -43.052361 -1.7462932 46.181892
26250000000 -1.8050441 44.778667 -8.7344418 -43.558514 -8.7319489 -43.592598 -1.7463461 45.653366
26260000000 -1.8022298 44.266945 -8.7418709 -44.08931 -8.7415695 -44.130985 -1.7435298 45.11404
26270000000 -1.7996061 43.771435 -8.7487192 -44.620834 -8.7479095 -44.655247 -1.7423141 44.57748
26280000000 -1.7959737 43.276752 -8.757226 -45.144375 -8.7562981 -45.17794 -1.7444851 44.033627
26290000000 -1.7938553 42.789112 -8.7653694 -45.664726 -8.763628 -45.703602 -1.7449157 43.485046
26300000000 -1.7941046 42.287685 -8.7722244 -46.192944 -8.7721443 -46.229973 -1.7459421 42.940456
26310000000 -1.7926954 41.787834 -8.7801704 -46.714664 -8.7779121 -46.763416 -1.7445668 42.390045
26320000000 -1.7915159 41.264412 -8.7872782 -47.246479 -8.7829695 -47.287846 -1.7446411 41.853165
26330000000 -1.7922324 40.749962 -8.7890291 -47.791443 -8.789362 -47.83712 -1.74279 41.299679
26340000000 -1.7916754 40.219173 -8.7987537 -48.33849 -8.7975903 -48.373875 -1.7448558 40.74649
26350000000 -1.7912493 39.696896 -8.8077946 -48.858803 -8.8058233 -48.90144 -1.7449183 40.18396
26360000000 -1.790422 39.174248 -8.8135633 -49.405842 -8.8129711 -49.439323 -1.7438531 39.614178
26370000000 -1.7876112 38.660744 -8.8234282 -49.943226 -8.822217 -49.988644 -1.7456063 39.037365
26380000000 -1.7844455 38.15332 -8.8308611 -50.480885 -8.8310041 -50.525139 -1.7434942 38.470608
26390000000 -1.7803088 37.656689 -8.8377695 -51.007206 -8.8370457 -51.05439 -1.741856 37.908833
26400000000 -1.7769165 37.151478 -8.8439178 -51.54007 -8.8435116 -51.569519 -1.7406813 37.357021
26410000000 -1.7770537 36.634163 -8.8515539 -52.07164 -8.8493958 -52.12822 -1.7369205 36.804409
26420000000 -1.7768799 36.121147 -8.8569775 -52.59996 -8.8554306 -52.648003 -1.7335807 36.270447
26430000000 -1.7788656 35.59597 -8.8653708 -53.144669 -8.8635111 -53.188747 -1.7304677 35.734097
26440000000 -1.780399 35.055481 -8.868556 -53.663349 -8.8676662 -53.717072 -1.725076 35.218246
26450000000 -1.7814829 34.520061 -8.8766298 -54.204903 -8.8773088 -54.252434 -1.7248195 34.681839
26460000000 -1.780376 33.971771 -8.8824186 -54.752201 -8.8808117 -54.789455 -1.7231225 34.148945
26470000000 -1.7795838 33.418491 -8.8911161 -55.299011 -8.8903208 -55.334301 -1.7236544 33.604019
26480000000 -1.7755289 32.877491 -8.8972578 -55.832134 -8.8982391 -55.872356 -1.7250913 33.068871
26490000000 -1.7719285 32.322514 -8.9049873 -56.374783 -8.9066534 -56.413872 -1.7270982 32.526356
26500000000 -1.7664238 31.786768 -8.9153032 -56.909584 -8.913887 -56.959484 -1.7263582 31.976484
26510000000 -1.7608181 31.252398 -8.9261532 -57.472935 -8.925415 -57.506451 -1.7266456 31.427845
26520000000 -1.7572435 30.741432 -8.9286022 -57.985043 -8.9266109 -58.022179 -1.7261956 30.892075
26530000000 -1.7538425 30.229925 -8.9371767 -58.516514 -8.9401112 -58.575443 -1.7253845 30.318148
26540000000 -1.7494239 29.740057 -8.9417734 -59.066959 -8.9437866 -59.100315 -1.7205211 29.76185
26550000000 -1.746749 29.245184 -8.9454679 -59.598736 -8.9492283 -59.634239 -1.7200553 29.219467
26560000000 -1.7458036 28.756388 -8.9584389 -60.141525 -8.9596128 -60.167908 -1.7192742 28.66839
26570000000 -1.7473993 28.268614 -8.9615479 -60.634007 -8.963273 -60.705624 -1.7165513 28.132273
26580000000 -1.7469651 27.753618 -8.9661694 -61.164059 -8.968606 -61.233711 -1.7141764 27.5872
26590000000 -1.7481929 27.225422 -8.968565 -61.741695 -8.9740658 -61.775291 -1.7103451 27.008623
26600000000 -1.7476315 26.705824 -8.9825163 -62.286594 -8.9781933 -62.300415 -1.7077081 26.473349
26610000000 -1.7471294 26.166847 -8.9838963 -62.819397 -8.9881554 -62.838467 -1.7083745 25.929996
26620000000 -1.7457696 25.645679 -8.9915752 -63.324181 -8.9888706 -63.366707 -1.7052664 25.401806
26630000000 -1.7412807 25.112103 -8.9989882 -63.873737 -8.9934874 -63.917637 -1.7032665 24.852873
26640000000 -1.7396328 24.592325 -9.0057096 -64.425217 -9.0036583 -64.42556 -1.6999564 24.331894
26650000000 -1.7350287 24.072216 -9.0103998 -64.954597 -9.0094023 -64.980942 -1.7005955 23.783739
26660000000 -1.7327369 23.56044 -9.0249071 -65.482346 -9.0200806 -65.530609 -1.7042547 23.243923
26670000000 -1.7286797 23.057152 -9.0251856 -66.038895 -9.0262556 -66.064537 -1.704494 22.715525
26680000000 -1.7290127 22.562033 -9.0284491 -66.559196 -9.0300369 -66.575928 -1.7000881 22.172426
26690000000 -1.7324229 22.041426 -9.032073 -67.092735 -9.0341167 -67.098351 -1.7001088 21.675119
26700000000 -1.735725 21.504456 -9.043272 -67.649063 -9.0417976 -67.690353 -1.7027837 21.114088
26710000000 -1.7371119 20.981325 -9.0465231 -68.188629 -9.0474844 -68.225029 -1.7026067 20.582718
26720000000 -1.7385553 20.43577 -9.0546436 -68.734413 -9.0529747 -68.790207 -1.7061577 20.026558
26730000000 -1.7374197 19.90196 -9.0554066 -69.28495 -9.0583076 -69.331467 -1.7075846 19.455196
26740000000 -1.7369459 19.365822 -9.0629177 -69.824448 -9.0641422 -69.85582 -1.7103982 18.910891
26750000000 -1.7362188 18.817352 -9.068202 -70.392342 -9.0688105 -70.417633 -1.7124789 18.331253
26760000000 -1.7338331 18.269659 -9.0760775 -70.920273 -9.073884 -70.928589 -1.7118245 17.770502
26770000000 -1.7287611 17.736273 -9.0807371 -71.460022 -9.0816698 -71.485146 -1.7137915 17.203371
26780000000 -1.7280897 17.202648 -9.0874805 -72.027 -9.0899849 -72.0271 -1.7090317 16.618441
26790000000 -1.7254072 16.677412 -9.0975237 -72.556519 -9.0980387 -72.577217 -1.7077377 16.058659
26800000000 -1.72065 16.141483 -9.1011009 -73.096466 -9.1024246 -73.113747 -1.7051141 15.510872
26810000000 -1.7197287 15.626505 -9.1098366 -73.66703 -9.1103373 -73.701164 -1.7021692 14.95502
26820000000 -1.7154845 15.139313 -9.1156406 -74.145592 -9.115736 -74.195366 -1.7022554 14.40428
26830000000 -1.7152263 14.616518 -9.1246376 -74.741165 -9.1210175 -74.751991 -1.6999499 13.833366
26840000000 -1.7139562 14.103991 -9.1281605 -75.236 -9.1297312 -75.31031 -1.7008801 13.264915
26850000000 -1.7130402 13.601407 -9.1339626 -75.809402 -9.1306467 -75.826302 -1.6982927 12.717301
26860000000 -1.7130902 13.080988 -9.1407604 -76.321762 -9.1460476 -76.356117 -1.6998553 12.163563
26870000000 -1.7105805 12.576756 -9.1530876 -76.855278 -9.1492224 -76.926369 -1.697636 11.611726
26880000000 -1.7098025 12.046114 -9.156661 -77.398209 -9.1553984 -77.460213 -1.6959943 11.047959
26890000000 -1.7126205 11.522551 -9.1598301 -77.963715 -9.1660709 -78.000008 -1.6910824 10.499788
26900000000 -1.7103076 10.986973 -9.1682463 -78.514648 -9.1681204 -78.533745 -1.6930773 9.9533663
26910000000 -1.7111812 10.462507 -9.178525 -79.063484 -9.1738768 -79.083405 -1.6847587 9.421546
26920000000 -1.7106369 9.9319658 -9.186265 -79.582977 -9.1840935 -79.614555 -1.6850475 8.8931274
26930000000 -1.7070562 9.3920193 -9.1844893 -80.138535 -9.1868267 -80.161919 -1.6790355 8.3747349
26940000000 -1.714088 8.8420744 -9.1976061 -80.643608 -9.1947699 -80.693291 -1.676107 7.8688965
26950000000 -1.7115133 8.2834406 -9.19837 -81.200134 -9.1959763 -81.244072 -1.6727841 7.3628817
26960000000 -1.7120733 7.7643023 -9.2048035 -81.73423 -9.2034121 -81.764809 -1.6741743 6.8680539
26970000000 -1.7075728 7.2231836 -9.2066765 -82.243248 -9.2045736 -82.285965 -1.6771623 6.3550076
26980000000 -1.705739 6.6740518 -9.2111301 -82.826965 -9.20753 -82.845917 -1.6771029 5.852562
26990000000 -1.7039095 6.1611333 -9.2171841 -83.3526 -9.2130909 -83.373123 -1.6841688 5.3238473
27000000000 -1.7029791 5.6280074 -9.221343 -83.892906 -9.2189598 -83.901726 -1.6875963 4.7868142
27010000000 -1.7003653 5.1302004 -9.2244902 -84.429146 -9.222724 -84.498207 -1.6929737 4.1999769
27020000000 -1.7012235 4.6203852 -9.2297201 -84.972427 -9.2326965 -85.020218 -1.6985549 3.6112573
27030000000 -1.6982682 4.1167517 -9.2323093 -85.548622 -9.2325029 -85.591301 -1.7040322 3.0175059
27040000000 -1.6987711 3.6261206 -9.2384558 -86.059296 -9.2382612 -86.121773 -1.7051942 2.405437
27050000000 -1.6964078 3.1131897 -9.23946 -86.627815 -9.2432194 -86.662781 -1.708104 1.7948092
27060000000 -1.6981676 2.5783501 -9.2455511 -87.19249 -9.2429152 -87.241455 -1.7059985 1.1912512
27070000000 -1.7011052 2.0627286 -9.2514963 -87.736824 -9.2464733 -87.789665 -1.7042525 0.57431352
27080000000 -1.701494 1.5263093 -9.2545137 -88.337563 -9.2573776 -88.367935 -1.70189 -0.026597869
27090000000 -1.7021987 1.0180892 -9.2608652 -88.861237 -9.2625704 -88.914528 -1.700425 -0.62886041
27100000000 -1.7016548 0.4708693 -9.2689972 -89.414986 -9.2688599 -89.48674 -1.6944304 -1.1995369
27110000000 -1.7003959 -0.040935609 -9.2784615 -89.955963 -9.2781019 -90.010384 -1.691641 -1.7744238
27120000000 -1.7007601 -0.5538826 -9.2803421 -90.53492 -9.2808714 -90.559364 -1.685892 -2.3518481
27130000000 -1.7007873 -1.0845302 -9.2894783 -91.090355 -9.2873964 -91.132805 -1.682708 -2.8689787
27140000000 -1.6985645 -1.5957416 -9.2980394 -91.60247 -9.2961836 -91.648422 -1.6837209 -3.4364455
27150000000 -1.6992676 -2.1009309 -9.3013411 -92.154381 -9.3017168 -92.199722 -1.6788172 -3.9442191
27160000000 -1.6998162 -2.6155908 -9.307518 -92.71756 -9.3114071 -92.751801 -1.677443 -4.4697127
27170000000 -1.7020605 -3.1514239 -9.3121548 -93.265045 -9.3149033 -93.289406 -1.6767479 -4.9789653
27180000000 -1.7033451 -3.6830614 -9.3209486 -93.804855 -9.3165588 -93.819031 -1.674518 -5.5045261
27190000000 -1.707111 -4.1954503 -9.3199329 -94.341904 -9.3196135 -94.366272 -1.6774263 -6.0312328
27200000000 -1.7090117 -4.7311807 -9.3284321 -94.89856 -9.3229113 -94.931038 -1.6790203 -6.5847936
27210000000 -1.7102677 -5.2786999 -9.3254004 -95.45166 -9.327177 -95.497574 -1.6819479 -7.120954
27220000000 -1.7116575 -5.8005724 -9.3292027 -95.976974 -9.3292742 -96.015976 -1.6857256 -7.6616564
27230000000 -1.711924 -6.3598952 -9.3344507 -96.543976 -9.3347626 -96.553185 -1.6926733 -8.2083807
27240000000 -1.7113624 -6.8585048 -9.3370552 -97.057228 -9.3386135 -97.102959 -1.6952381 -8.8022556
27250000000 -1.7101091 -7.4163289 -9.3438454 -97.60778 -9.3452845 -97.670364 -1.6952626 -9.3522806
27260000000 -1.7088287 -7.9297004 -9.3492136 -98.1418 -9.34694 -98.203033 -1.6964912 -9.9274483
27270000000 -1.7097055 -8.4540491 -9.3557129 -98.716179 -9.3578644 -98.766716 -1.6979716 -10.517433
27280000000 -1.7063295 -8.9345112 -9.3579168 -99.270264 -9.3570471 -99.293541 -1.698742 -11.116555
27290000000 -1.7096633 -9.4512091 -9.3667793 -99.83078 -9.3661585 -99.889603 -1.6983528 -11.733713
27300000000 -1.7135177 -9.9791527 -9.3728447 -100.38741 -9.3721752 -100.41375 -1.6968164 -12.305015
27310000000 -1.7122704 -10.501689 -9.3744068 -100.95781 -9.3729982 -100.99706 -1.6887681 -12.890115
27320000000 -1.7146804 -11.026828 -9.3775215 -101.52802 -9.375658 -101.5377 -1.6887178 -13.455688
27330000000 -1.7185442 -11.556081 -9.3807297 -102.04943 -9.3805122 -102.08615 -1.6826626 -13.997616
27340000000 -1.7195053 -12.098473 -9.3852701 -102.61414 -9.3863258 -102.64381 -1.6846545 -14.570728
27350000000 -1.7236329 -12.66402 -9.396347 -103.15771 -9.391922 -103.21462 -1.6848613 -15.111584
27360000000 -1.7202637 -13.217072 -9.3924599 -103.70862 -9.3914375 -103.75668 -1.6843394 -15.656614
27370000000 -1.7235097 -13.756382 -9.4023571 -104.25388 -9.3985691 -104.27767 -1.6896284 -16.216894
27380000000 -1.7242227 -14.324077 -9.4081631 -104.84628 -9.4070673 -104.88411 -1.6883962 -16.76869
27390000000 -1.7253895 -14.878863 -9.4196396 -105.40579 -9.4155149 -105.41825 -1.6896256 -17.352322
27400000000 -1.7207989 -15.422801 -9.4207716 -105.95758 -9.4176311 -105.95712 -1.689068 -17.910555
27410000000 -1.722512 -15.95472 -9.4240284 -106.54501 -9.4236012 -106.54434 -1.6868302 -18.493465
27420000000 -1.7223103 -16.527905 -9.4307108 -107.089 -9.4303007 -107.1362 -1.68435 -19.065407
27430000000 -1.726169 -17.068298 -9.4417009 -107.64317 -9.4373016 -107.66611 -1.6829391 -19.646769
27440000000 -1.7211483 -17.649204 -9.4424896 -108.22507 -9.4433889 -108.229 -1.6810178 -20.172369
27450000000 -1.7226386 -18.177114 -9.4442215 -108.74156 -9.4490995 -108.81023 -1.6804368 -20.721172
27460000000 -1.7233161 -18.76552 -9.4551706 -109.29755 -9.4541368 -109.36234 -1.6797119 -21.243198
27470000000 -1.7200826 -19.30934 -9.4549437 -109.85332 -9.4610415 -109.90035 -1.6796223 -21.778311
27480000000 -1.7163304 -19.88632 -9.4600859 -110.44284 -9.4611292 -110.46987 -1.678827 -22.320026
27490000000 -1.7131336 -20.414858 -9.4706306 -110.95336 -9.4696894 -110.97057 -1.6816746 -22.846363
27500000000 -1.7095715 -20.945328 -9.4774418 -111.45795 -9.476675 -111.53034 -1.686584 -23.390375
27510000000 -1.7058859 -21.468229 -9.4839678 -112.03285 -9.4824629 -112.11787 -1.6860725 -23.953527
27520000000 -1.7040536 -21.988272 -9.489625 -112.6143 -9.4904404 -112.64814 -1.6903965 -24.544882
27530000000 -1.6981442 -22.491747 -9.4965315 -113.16653 -9.4948034 -113.20945 -1.6942067 -25.131308
27540000000 -1.6976528 -22.994905 -9.501523 -113.73614 -9.5014668 -113.75237 -1.6993124 -25.733669
27550000000 -1.6960762 -23.463966 -9.5098171 -114.2708 -9.5028572 -114.29326 -1.7012649 -26.339594
27560000000 -1.6964575 -23.938015 -9.5071211 -114.81263 -9.5038548 -114.82252 -1.6961033 -26.934504
27570000000 -1.6982238 -24.482458 -9.5080862 -115.35732 -9.5156527 -115.39127 -1.6991088 -27.52153
27580000000 -1.700556 -24.987396 -9.5153637 -115.92264 -9.51579 -115.97285 -1.6970402 -28.143663
27590000000 -1.7011243 -25.495522 -9.5211306 -116.4498 -9.520627 -116.4925 -1.6955746 -28.737051
27600000000 -1.7019995 -26.035856 -9.524478 -116.999 -9.5267296 -117.01618 -1.6938825 -29.29269
27610000000 -1.7042843 -26.570221 -9.5322495 -117.52695 -9.5340195 -117.5838 -1.6872509 -29.863298
27620000000 -1.7061627 -27.117819 -9.5340567 -118.13087 -9.534359 -118.16885 -1.6840124 -30.459837
27630000000 -1.7033305 -27.644695 -9.5450602 -118.66669 -9.541831 -118.73106 -1.6870042 -31.0201
27640000000 -1.7036121 -28.193235 -9.5430517 -119.24303 -9.5446987 -119.28024 -1.681723 -31.576887
27650000000 -1.7013457 -28.739845 -9.5502291 -119.80453 -9.5510674 -119.85191 -1.6797633 -32.144924
27660000000 -1.7037685 -29.227524 -9.5544577 -120.34993 -9.5555372 -120.39501 -1.6767312 -32.713501
27670000000 -1.7065001 -29.801086 -9.5596237 -120.91461 -9.5607853 -120.93771 -1.6768237 -33.23616
27680000000 -1.7074106 -30.319521 -9.5617323 -121.43325 -9.5627823 -121.44731 -1.6715485 -33.782604
27690000000 -1.6995789 -30.847929 -9.5650511 -122.03687 -9.5647697 -122.04845 -1.6734802 -34.34774
27700000000 -1.7057122 -31.387171 -9.5708513 -122.56478 -9.5676584 -122.56775 -1.6734139 -34.862572
27710000000 -1.7053242 -31.979626 -9.5742855 -123.13483 -9.5735083 -123.1529 -1.6757221 -35.41478
27720000000 -1.7068785 -32.543579 -9.5784779 -123.63272 -9.5771208 -123.68272 -1.6812354 -35.961895
27730000000 -1.7026155 -33.126755 -9.579071 -124.28227 -9.5771694 -124.30192 -1.6808844 -36.511433
27740000000 -1.7070358 -33.669029 -9.5850401 -124.83097 -9.5877762 -124.80545 -1.6798952 -37.082668
27750000000 -1.7051551 -34.208504 -9.5911465 -125.35819 -9.5924654 -125.38078 -1.6847476 -37.648521
27760000000 -1.7012254 -34.780819 -9.5966072 -125.93816 -9.5967093 -126.00821 -1.6927359 -38.227657
27770000000 -1.7038881 -35.350525 -9.6016254 -126.51144 -9.602891 -126.57361 -1.6915206 -38.80529
27780000000 -1.6990498 -35.831551 -9.6029196 -127.03735 -9.6078367 -127.08648 -1.6967342 -39.387447
27790000000 -1.7003909 -36.392048 -9.6130648 -127.63139 -9.6078968 -127.67076 -1.6961281 -39.992939
27800000000 -1.6954817 -36.918179 -9.6155567 -128.19736 -9.6173916 -128.24469 -1.7000192 -40.595909
27810000000 -1.6950774 -37.465954 -9.611948 -128.75433 -9.6205072 -128.81604 -1.693426 -41.187603
27820000000 -1.6973039 -37.999386 -9.6232557 -129.30553 -9.6166573 -129.35298 -1.6938523 -41.79546
27830000000 -1.6953803 -38.562267 -9.6255531 -129.89708 -9.6232128 -129.94415 -1.6923492 -42.407116
27840000000 -1.6945746 -39.085556 -9.6314573 -130.44366 -9.6331902 -130.46164 -1.6944388 -43.004654
27850000000 -1.6940548 -39.6129 -9.6352091 -130.97186 -9.6327505 -131.02847 -1.6906081 -43.559971
27860000000 -1.6926863 -40.189838 -9.6436758 -131.58856 -9.644352 -131.59227 -1.6898181 -44.165726
27870000000 -1.6882073 -40.731258 -9.6480875 -132.15009 -9.6508102 -132.16029 -1.6879896 -44.734951
27880000000 -1.6889648 -41.249359 -9.657403 -132.71301 -9.661478 -132.71858 -1.6882432 -45.322395
27890000000 -1.6847278 -41.770359 -9.6641397 -133.25043 -9.6605835 -133.25957 -1.6835536 -45.876812
27900000000 -1.6814382 -42.298317 -9.6732864 -133.81485 -9.6713171 -133.83929 -1.681476 -46.461807
27910000000 -1.6831568 -42.837578 -9.6778212 -134.34712 -9.6745834 -134.37347 -1.6788232 -46.959129
27920000000 -1.677976 -43.328114 -9.6752377 -134.90544 -9.67978 -134.94211 -1.676676 -47.535721
27930000000 -1.6846129 -43.833687 -9.6891432 -135.45464 -9.6863499 -135.45102 -1.6807486 -48.060654
27940000000 -1.6859778 -44.343151 -9.6916847 -136.01067 -9.6912403 -136.01575 -1.6763703 -48.622421
27950000000 -1.6873505 -44.886349 -9.6960621 -136.55037 -9.6919384 -136.60355 -1.6747952 -49.176769
27960000000 -1.685587 -45.391846 -9.7009096 -137.04692 -9.6963234 -137.10155 -1.6821638 -49.710068
27970000000 -1.6888633 -45.955051 -9.6989574 -137.65543 -9.6988258 -137.70354 -1.686008 -50.301292
27980000000 -1.6875383 -46.518269 -9.7046595 -138.23607 -9.7071018 -138.24802 -1.6879735 -50.867874
27990000000 -1.6838518 -47.119831 -9.7044573 -138.80754 -9.7034416 -138.81769 -1.6891803 -51.387783
28000000000 -1.6826557 -47.673 -9.716876 -139.33435 -9.7179441 -139.36037 -1.7019393 -51.971962
28010000000 -1.6797333 -48.227184 -9.7176971 -139.95306 -9.7159977 -139.97144 -1.6948365 -52.599709
28020000000 -1.6820902 -48.777477 -9.7160654 -140.49556 -9.7183933 -140.52687 -1.6923068 -53.1745
28030000000 -1.676195 -49.330284 -9.7256079 -141.10942 -9.7247868 -141.12927 -1.6961377 -53.791061
28040000000 -1.6747955 -49.865486 -9.7185774 -141.63861 -9.728158 -141.69667 -1.6912454 -54.352489
28050000000 -1.6703725 -50.361996 -9.7366772 -142.21246 -9.7318239 -142.24847 -1.6951531 -54.955788
28060000000 -1.6717086 -50.883095 -9.7370033 -142.75345 -9.7367487 -142.78691 -1.6903617 -55.552753
28070000000 -1.6757895 -51.40144 -9.7456341 -143.32379 -9.7514868 -143.3597 -1.6957231 -56.106735
28080000000 -1.6779063 -51.91383 -9.7471008 -143.81546 -9.7457161 -143.87291 -1.6943749 -56.669983
28090000000 -1.6781893 -52.497765 -9.7545395 -144.49568 -9.7512302 -144.52072 -1.6937093 -57.338169
28100000000 -1.6823171 -52.998669 -9.7534838 -145.03415 -9.7555943 -145.04524 -1.6965998 -57.909023
28110000000 -1.6810806 -53.5495 -9.7602644 -145.56787 -9.7596312 -145.62215 -1.695152 -58.510906
28120000000 -1.6873058 -54.095428 -9.766427 -146.12354 -9.7631063 -146.17903 -1.6978592 -59.064854
28130000000 -1.6829654 -54.638241 -9.768671 -146.73656 -9.7702131 -146.73558 -1.6995957 -59.690273
28140000000 -1.6879365 -55.256878 -9.7758017 -147.32895 -9.776927 -147.35368 -1.6971006 -60.254517
28150000000 -1.6815813 -55.806541 -9.7837629 -147.88319 -9.7820826 -147.90865 -1.6949352 -60.886539
28160000000 -1.6796882 -56.36821 -9.7899895 -148.42282 -9.7882414 -148.46581 -1.6972977 -61.455078
28170000000 -1.6743531 -56.919765 -9.7923584 -148.99925 -9.7976542 -149.00468 -1.6966871 -62.03606
28180000000 -1.6721514 -57.464664 -9.800561 -149.63 -9.7965984 -149.63126 -1.6892238 -62.652416
28190000000 -1.6694056 -57.986099 -9.8025217 -150.14694 -9.8041353 -150.17981 -1.6869709 -63.206535
28200000000 -1.6711502 -58.536701 -9.8102369 -150.74852 -9.810008 -150.73016 -1.6821661 -63.778503
28210000000 -1.6685513 -59.070988 -9.8240433 -151.28299 -9.8203306 -151.31097 -1.6891211 -64.359245
28220000000 -1.6699778 -59.571457 -9.8194933 -151.85785 -9.8225565 -151.85541 -1.6837431 -64.917946
28230000000 -1.6663772 -60.079266 -9.8301926 -152.3974 -9.826108 -152.40979 -1.6810654 -65.479576
28240000000 -1.6648703 -60.588684 -9.8319569 -152.95871 -9.8322506 -152.98508 -1.6881679 -66.066689
28250000000 -1.6671345 -61.107803 -9.8356495 -153.51135 -9.8363419 -153.55305 -1.6921715 -66.669113
28260000000 -1.6676555 -61.615471 -9.8385649 -154.00978 -9.8413486 -154.07869 -1.6967694 -67.209831
28270000000 -1.6664392 -62.148731 -9.8461351 -154.63113 -9.8453913 -154.70087 -1.6950511 -67.849426
28280000000 -1.6715572 -62.651871 -9.8459358 -155.19905 -9.8495893 -155.2383 -1.693239 -68.44278
28290000000 -1.6699295 -63.192554 -9.8534575 -155.77814 -9.8545074 -155.82602 -1.7011224 -69.073334
28300000000 -1.6766207 -63.740063 -9.8601303 -156.34393 -9.8579636 -156.40672 -1.6992753 -69.659431
28310000000 -1.6750262 -64.290665 -9.8650579 -156.94412 -9.864893 -156.93794 -1.6980788 -70.227356
28320000000 -1.6787512 -64.813812 -9.8693867 -157.40688 -9.8678627 -157.48624 -1.6992179 -70.821129
28330000000 -1.6887159 -65.407181 -9.8739948 -158.045 -9.8822107 -158.08791 -1.6905329 -71.417793
28340000000 -1.6891837 -65.983528 -9.8843441 -158.61403 -9.8825588 -158.63976 -1.6945814 -71.989601
28350000000 -1.6809007 -66.546516 -9.8880854 -159.13853 -9.8826056 -159.16695 -1.6916105 -72.507629
28360000000 -1.68402 -67.162437 -9.8931055 -159.74826 -9.8926954 -159.78369 -1.6903205 -73.07576
28370000000 -1.687909 -67.714584 -9.8993731 -160.32117 -9.9007368 -160.34196 -1.6861931 -73.670494
28380000000 -1.6802924 -68.287003 -9.8979836 -160.83383 -9.9013109 -160.89206 -1.6854898 -74.198372
28390000000 -1.6793102 -68.819733 -9.9033003 -161.44893 -9.9027843 -161.46495 -1.6819232 -74.782379
28400000000 -1.6740559 -69.368057 -9.9137888 -161.98366 -9.9077759 -162.05721 -1.691179 -75.360016
28410000000 -1.6738721 -69.894035 -9.9171638 -162.5629 -9.9208136 -162.57541 -1.6951141 -75.940582
28420000000 -1.6727278 -70.415825 -9.9235792 -163.11668 -9.9207363 -163.11563 -1.6955854 -76.518188
28430000000 -1.6724433 -70.937149 -9.9364557 -163.67458 -9.9276571 -163.73763 -1.695222 -77.126221
28440000000 -1.6704432 -71.485725 -9.9413519 -164.27802 -9.9359617 -164.28366 -1.6974677 -77.719788
28450000000 -1.667665 -72.021782 -9.9349031 -164.80055 -9.9367046 -164.867 -1.7009244 -78.296165
28460000000 -1.6724223 -72.538666 -9.9416628 -165.34465 -9.9386148 -165.40222 -1.6958524 -78.876038
28470000000 -1.6657884 -73.04586 -9.9457607 -165.9283 -9.9436378 -165.99411 -1.6996363 -79.5466
28480000000 -1.6673666 -73.617996 -9.9583292 -166.50124 -9.95751 -166.53076 -1.7046381 -80.131302
28490000000 -1.6704957 -74.142982 -9.9611044 -167.07405 -9.9594021 -167.0968 -1.7055753 -80.755264
28500000000 -1.6680827 -74.704803 -9.9602518 -167.6337 -9.9634113 -167.68198 -1.6984749 -81.301277
28510000000 -1.6674689 -75.205391 -9.9815989 -168.22554 -9.9768581 -168.24554 -1.7043054 -81.905167
28520000000 -1.6686908 -75.740761 -9.9794235 -168.75531 -9.9792204 -168.77834 -1.698819 -82.506248
28530000000 -1.6639311 -76.245651 -9.9791527 -169.304 -9.9820042 -169.35144 -1.6981179 -83.088463
28540000000 -1.6705307 -76.784653 -9.990201 -169.85751 -9.9971533 -169.90793 -1.6988029 -83.670593
28550000000 -1.6627159 -77.319633 -9.9945631 -170.45061 -9.9883623 -170.51567 -1.6970211 -84.289391
28560000000 -1.6650686 -77.823853 -9.9933081 -171.06606 -10.002476 -171.07883 -1.6963214 -84.893021
28570000000 -1.664066 -78.334038 -9.9991722 -171.61568 -9.9996452 -171.64236 -1.6938962 -85.480934
28580000000 -1.6692748 -78.873062 -10.0164 -172.20348 -10.009018 -172.24832 -1.6957464 -86.078659
28590000000 -1.6690927 -79.36393 -10.006554 -172.69974 -10.011391 -172.75676 -1.6963286 -86.634499
28600000000 -1.6697812 -79.907524 -10.015552 -173.28049 -10.018756 -173.30968 -1.7004844 -87.201378
28610000000 -1.6750871 -80.458344 -10.017015 -173.82195 -10.021835 -173.84787 -1.6958585 -87.713005
28620000000 -1.6757001 -80.994385 -10.014504 -174.43581 -10.01963 -174.42236 -1.6941906 -88.327904
28630000000 -1.6780807 -81.566879 -10.021296 -175.04137 -10.017914 -175.03506 -1.6958765 -88.939041
28640000000 -1.6808115 -82.13282 -10.016405 -175.57712 -10.017942 -175.63118 -1.6852623 -89.50444
28650000000 -1.68609 -82.721863 -10.020604 -176.16263 -10.022231 -176.16336 -1.6928724 -90.081436
28660000000 -1.6861668 -83.281906 -10.030996 -176.71384 -10.039722 -176.75832 -1.6979632 -90.666992
28670000000 -1.6937283 -83.855377 -10.035684 -177.30374 -10.039998 -177.39098 -1.6958765 -91.278389
28680000000 -1.6849769 -84.449196 -10.037933 -177.9126 -10.038915 -177.92505 -1.6985002 -91.886314
28690000000 -1.6938148 -84.989441 -10.049079 -178.40582 -10.050947 -178.44933 -1.7007046 -92.428963
28700000000 -1.689793 -85.6045 -10.056173 -179.06326 -10.05575 -179.08035 -1.7069093 -93.056282
28710000000 -1.6908164 -86.184113 -10.057201 -179.61618 -10.058737 -179.70322 -1.700932 -93.671532
28720000000 -1.6806941 -86.721153 -10.063608 179.74176 -10.063663 179.72406 -1.7040563 -94.315948
28730000000 -1.6804631 -87.257431 -10.065406 179.23593 -10.069549 179.19684 -1.7065005 -94.913712
28740000000 -1.6754564 -87.767906 -10.073918 178.59036 -10.072639 178.58731 -1.7079061 -95.578827
28750000000 -1.6705581 -88.348663 -10.082103 178.02979 -10.076861 178.03026 -1.7087005 -96.168922
28760000000 -1.6749946 -88.844513 -10.083102 177.49063 -10.088693 177.4931 -1.7046864 -96.747078
28770000000 -1.6708224 -89.373062 -10.09233 176.95601 -10.095114 176.88565 -1.7084619 -97.385361
28780000000 -1.6758459 -89.916237 -10.104815 176.35019 -10.102348 176.34726 -1.7059855 -97.98484
28790000000 -1.671927 -90.439468 -10.103178 175.74413 -10.102683 175.6913 -1.7003132 -98.606216
28800000000 -1.6745952 -90.951691 -10.114368 175.22023 -10.107497 175.1801 -1.7007298 -99.192184
28810000000 -1.6737998 -91.500313 -10.115389 174.62082 -10.119114 174.60799 -1.6973701 -99.741577
28820000000 -1.6764803 -92.040054 -10.124461 174.06822 -10.120145 174.00781 -1.6972594 -100.33858
28830000000 -1.6810639 -92.566147 -10.118096 173.53366 -10.123404 173.5134 -1.6934891 -100.91017
28840000000 -1.6760648 -93.170479 -10.12307 172.91504 -10.120996 172.90665 -1.6983774 -101.44858
28850000000 -1.6765012 -93.675308 -10.134112 172.36383 -10.131146 172.32999 -1.6979051 -102.04318
28860000000 -1.6806663 -94.269554 -10.140709 171.75209 -10.138113 171.73244 -1.7067041 -102.62354
28870000000 -1.68093 -94.812462 -10.145191 171.24838 -10.140773 171.18373 -1.7069991 -103.19332
28880000000 -1.6812606 -95.39119 -10.155135 170.61548 -10.153573 170.61546 -1.7169918 -103.78471
28890000000 -1.685887 -95.945549 -10.155773 170.0258 -10.160254 170.04788 -1.7071896 -104.42101
28900000000 -1.679404 -96.518661 -10.160854 169.51677 -10.160889 169.45978 -1.7163434 -104.99297
28910000000 -1.6766174 -97.087296 -10.155814 168.89497 -10.163455 168.8539 -1.7093114 -105.64626
28920000000 -1.6785326 -97.628746 -10.168055 168.28967 -10.165403 168.34335 -1.7128452 -106.26711
28930000000 -1.6758504 -98.185417 -10.173341 167.79834 -10.177452 167.78818 -1.71689 -106.84383
28940000000 -1.6775889 -98.762367 -10.174937 167.23276 -10.180727 167.14326 -1.7074596 -107.48726
28950000000 -1.6777588 -99.315125 -10.187203 166.62007 -10.185983 166.60689 -1.7060369 -108.04904
28960000000 -1.6713659 -99.859406 -10.188057 166.03609 -10.191611 166.00462 -1.70462 -108.6952
28970000000 -1.6660129 -100.41375 -10.197554 165.46689 -10.195616 165.42438 -1.7059276 -109.26761
28980000000 -1.6697112 -100.93438 -10.204507 164.90207 -10.203397 164.89815 -1.7032975 -109.85887
28990000000 -1.6631596 -101.47092 -10.214669 164.30154 -10.213831 164.33768 -1.7035657 -110.44699
29000000000 -1.6649531 -101.9917 -10.215076 163.81467 -10.216155 163.76465 -1.7039026 -111.02914
29010000000 -1.6634665 -102.50546 -10.2256 163.20346 -10.21878 163.17618 -1.6987711 -111.65397
29020000000 -1.6608042 -103.10747 -10.22217 162.61534 -10.223995 162.58893 -1.699788 -112.21932
29030000000 -1.6641825 -103.61956 -10.23418 162.03752 -10.228091 161.99649 -1.700249 -112.83612
29040000000 -1.6633297 -104.14397 -10.233161 161.48039 -10.235496 161.43756 -1.6989127 -113.38571
29050000000 -1.6666987 -104.68782 -10.24117 160.89336 -10.244872 160.92006 -1.7011894 -113.94849
29060000000 -1.6710422 -105.23685 -10.250268 160.33826 -10.25335 160.26822 -1.7038531 -114.56717
29070000000 -1.6695478 -105.78425 -10.246939 159.76549 -10.243248 159.71828 -1.6929069 -115.17945
29080000000 -1.6679007 -106.34029 -10.250264 159.1588 -10.251184 159.11559 -1.7008049 -115.78318
29090000000 -1.6625364 -106.88688 -10.255146 158.62462 -10.259721 158.60301 -1.7061772 -116.29606
29100000000 -1.6591668 -107.4275 -10.257227 158.02399 -10.260697 158.00214 -1.7020577 -116.92924
29110000000 -1.6573007 -107.96536 -10.265928 157.4921 -10.262384 157.4411 -1.7105037 -117.49117
29120000000 -1.6565001 -108.49213 -10.274508 156.86482 -10.276027 156.83423 -1.7152098 -118.14063
29130000000 -1.6595522 -109.03201 -10.284584 156.28175 -10.283423 156.30557 -1.7167782 -118.74371
29140000000 -1.6595697 -109.51862 -10.287207 155.70859 -10.289531 155.68427 -1.7232268 -119.39471
29150000000 -1.6587045 -110.10115 -10.289915 155.10675 -10.290575 155.10699 -1.7161309 -119.96721
29160000000 -1.6639582 -110.62959 -10.296306 154.53535 -10.307888 154.52905 -1.7254715 -120.65314
29170000000 -1.6550159 -111.11043 -10.299258 154.01154 -10.29744 154.0136 -1.7248943 -121.25185
29180000000 -1.659506 -111.67593 -10.298623 153.41711 -10.302614 153.38611 -1.7153893 -121.91749
29190000000 -1.6579525 -112.23276 -10.30104 152.88654 -10.305318 152.80865 -1.7189718 -122.52377
29200000000 -1.6542482 -112.77511 -10.313177 152.26088 -10.309386 152.23578 -1.71249 -123.15606
29210000000 -1.6620713 -113.31216 -10.31755 151.71017 -10.319639 151.68593 -1.7119113 -123.74857
29220000000 -1.6582949 -113.89973 -10.31704 151.14323 -10.316511 151.11447 -1.7049274 -124.35055
29230000000 -1.6618178 -114.4562 -10.327374 150.56082 -10.326142 150.54013 -1.7032274 -124.89352
29240000000 -1.6595788 -114.98656 -10.337229 149.93146 -10.335122 149.92221 -1.7062137 -125.56385
29250000000 -1.6619233 -115.52775 -10.344424 149.40036 -10.344935 149.32394 -1.7023232 -126.12762
29260000000 -1.6552202 -116.0862 -10.345689 148.82372 -10.338099 148.76147 -1.6979039 -126.70199
29270000000 -1.6576142 -116.62099 -10.356704 148.29128 -10.356898 148.26259 -1.7031687 -127.22167
29280000000 -1.6572284 -117.16621 -10.353049 147.70374 -10.349331 147.68611 -1.6938721 -127.83775
29290000000 -1.6565194 -117.72549 -10.358186 147.07365 -10.356406 147.08057 -1.6975389 -128.43231
29300000000 -1.6541884 -118.29382 -10.361 146.54465 -10.360474 146.51106 -1.6974531 -129.00836
29310000000 -1.6531546 -118.83442 -10.36851 145.92079 -10.370112 145.90956 -1.7073706 -129.61707
29320000000 -1.6578425 -119.3597 -10.374745 145.40167 -10.370372 145.36731 -1.7012607 -130.17113
29330000000 -1.6609294 -119.9392 -10.378113 144.84528 -10.376516 144.78262 -1.7033056 -130.75818
29340000000 -1.6561722 -120.46805 -10.382434 144.26653 -10.377073 144.24486 -1.6998477 -131.37856
29350000000 -1.6554009 -121.0164 -10.388732 143.74457 -10.385503 143.70677 -1.7054979 -131.94003
29360000000 -1.6467879 -121.55811 -10.390001 143.14633 -10.385801 143.1095 -1.7013863 -132.54916
29370000000 -1.648326 -122.09698 -10.397552 142.56741 -10.39922 142.51474 -1.7073791 -133.14813
29380000000 -1.6525793 -122.64185 -10.402137 141.97438 -10.402496 141.98221 -1.7019753 -133.71231
29390000000 -1.6439828 -123.16563 -10.40193 141.43106 -10.402672 141.38632 -1.7048385 -134.34763
29400000000 -1.645169 -123.71948 -10.409163 140.76146 -10.40906 140.76346 -1.7067363 -134.96606
29410000000 -1.646578 -124.25035 -10.415632 140.21437 -10.414474 140.18565 -1.706458 -135.56413
29420000000 -1.6443888 -124.79652 -10.417323 139.65334 -10.421196 139.6275 -1.7101119 -136.14961
29430000000 -1.6431509 -125.33586 -10.416423 139.06755 -10.417183 139.06686 -1.7073215 -136.76617
29440000000 -1.6485807 -125.86304 -10.426231 138.51607 -10.426052 138.53467 -1.7066343 -137.36176
29450000000 -1.6483802 -126.37247 -10.434154 137.95422 -10.432738 137.95856 -1.7133187 -137.97632
29460000000 -1.6488531 -126.93655 -10.434621 137.35246 -10.43322 137.32108 -1.7129393 -138.60315
29470000000 -1.6484966 -127.46191 -10.438389 136.7672 -10.438557 136.73552 -1.7156748 -139.22839
29480000000 -1.6483979 -127.97669 -10.442472 136.25793 -10.43741 136.21356 -1.7129066 -139.82378
29490000000 -1.6547579 -128.54781 -10.445822 135.64693 -10.4428 135.64705 -1.7090504 -140.45518
29500000000 -1.6556113 -129.08513 -10.452688 135.06371 -10.452524 135.03944 -1.7105836 -141.09816
29510000000 -1.6571237 -129.63432 -10.461769 134.45944 -10.455477 134.41211 -1.7080395 -141.72836
29520000000 -1.660352 -130.22945 -10.462145 133.89049 -10.460649 133.85222 -1.7011918 -142.27896
29530000000 -1.6667979 -130.79784 -10.472617 133.27322 -10.470981 133.27702 -1.7024684 -142.88519
29540000000 -1.6685916 -131.40886 -10.477928 132.73781 -10.471752 132.71315 -1.6960907 -143.40096
29550000000 -1.6645479 -131.97714 -10.481655 132.17281 -10.474706 132.11566 -1.6990356 -144.01472
29560000000 -1.6672006 -132.54439 -10.488741 131.5952 -10.482886 131.57903 -1.696702 -144.55931
29570000000 -1.6647693 -133.14182 -10.482999 131.01169 -10.487049 130.91589 -1.6978637 -145.14915
29580000000 -1.6637284 -133.70282 -10.497635 130.42355 -10.499454 130.39566 -1.7070539 -145.68846
29590000000 -1.6630511 -134.27777 -10.496889 129.89055 -10.498581 129.83083 -1.7041762 -146.27328
29600000000 -1.6574565 -134.86006 -10.497627 129.24281 -10.498839 129.19232 -1.7041551 -146.8913
29610000000 -1.653339 -135.43329 -10.501501 128.71867 -10.50053 128.69786 -1.7074988 -147.45461
29620000000 -1.6533985 -135.98236 -10.512055 128.10326 -10.509936 128.04153 -1.7144279 -148.07027
29630000000 -1.6447978 -136.50163 -10.507297 127.53608 -10.514928 127.49614 -1.7175039 -148.68968
29640000000 -1.6461321 -137.04832 -10.523343 126.96797 -10.524045 126.93804 -1.7218062 -149.28
29650000000 -1.6449453 -137.56113 -10.52389 126.39471 -10.528283 126.3744 -1.7229992 -149.95752
29660000000 -1.6432235 -138.09486 -10.528672 125.79462 -10.528831 125.74665 -1.7245616 -150.60928
29670000000 -1.6462346 -138.61803 -10.531878 125.26909 -10.529454 125.18955 -1.717515 -151.21153
29680000000 -1.6444039 -139.16331 -10.539334 124.6777 -10.540327 124.64811 -1.7211086 -151.83627
29690000000 -1.645259 -139.67624 -10.540574 124.09436 -10.544071 124.078 -1.7193218 -152.4621
29700000000 -1.642747 -140.26115 -10.54515 123.47411 -10.550534 123.43867 -1.715279 -153.07706
29710000000 -1.6454099 -140.79462 -10.556085 122.8683 -10.552033 122.8874 -1.7147619 -153.70001
29720000000 -1.6468647 -141.31818 -10.569413 122.38651 -10.560216 122.36593 -1.7145855 -154.28804
29730000000 -1.6478784 -141.87611 -10.574292 121.77174 -10.573414 121.77962 -1.7149781 -154.84308
29740000000 -1.6475444 -142.41327 -10.569512 121.22211 -10.569051 121.15678 -1.7046001 -155.45819
29750000000 -1.6438154 -142.92506 -10.572739 120.66024 -10.573866 120.61105 -1.7086077 -156.03236
29760000000 -1.6484369 -143.44933 -10.585524 120.10895 -10.588669 120.07793 -1.7076337 -156.58408
29770000000 -1.6421379 -144.01253 -10.588604 119.50237 -10.585493 119.45097 -1.7098044 -157.18579
29780000000 -1.6448413 -144.52579 -10.588139 118.97456 -10.589044 118.93715 -1.7097105 -157.75238
29790000000 -1.6437454 -145.1176 -10.59483 118.35031 -10.5931 118.32771 -1.712629 -158.32587
29800000000 -1.6526216 -145.61227 -10.601209 117.82883 -10.603037 117.77022 -1.7117351 -158.93181
29810000000 -1.6506361 -146.15178 -10.60114 117.23251 -10.606125 117.21548 -1.7133948 -159.53844
29820000000 -1.6556082 -146.70752 -10.605163 116.70279 -10.601684 116.64565 -1.713076 -160.09509
29830000000 -1.6510907 -147.22827 -10.605312 116.07218 -10.604805 116.0291 -1.7193176 -160.73735
29840000000 -1.6530501 -147.78108 -10.606011 115.51056 -10.602138 115.48249 -1.7162888 -161.31804
29850000000 -1.6543756 -148.32365 -10.61265 114.92143 -10.614684 114.88459 -1.7201241 -161.91371
29860000000 -1.6570286 -148.86653 -10.617736 114.33881 -10.615576 114.32952 -1.7201018 -162.51004
29870000000 -1.6576139 -149.40379 -10.611732 113.73836 -10.615338 113.71237 -1.7144411 -163.1633
29880000000 -1.6619245 -149.95399 -10.618789 113.2276 -10.617005 113.16136 -1.7156974 -163.75108
29890000000 -1.6631429 -150.51454 -10.63027 112.64603 -10.629097 112.62134 -1.7169591 -164.29532
29900000000 -1.6654663 -151.04263 -10.629603 112.09283 -10.629117 111.98589 -1.7211317 -164.933
29910000000 -1.6692748 -151.60655 -10.634994 111.54514 -10.640285 111.44278 -1.7204518 -165.52095
29920000000 -1.6725525 -152.1851 -10.637225 110.88179 -10.634809 110.86749 -1.7192996 -166.09903
29930000000 -1.6741354 -152.75566 -10.639613 110.34528 -10.638344 110.26814 -1.7239693 -166.69673
29940000000 -1.680582 -153.3539 -10.653758 109.71366 -10.647732 109.65859 -1.7208346 -167.32552
29950000000 -1.6803248 -153.93239 -10.648541 109.1026 -10.649739 109.06374 -1.725227 -167.91226
29960000000 -1.680058 -154.55299 -10.654478 108.50185 -10.652496 108.44773 -1.7245303 -168.51314
29970000000 -1.6788388 -155.12497 -10.658567 107.92815 -10.653844 107.86856 -1.7267946 -169.12248
29980000000 -1.6835527 -155.69116 -10.66054 107.29831 -10.659845 107.27311 -1.7213645 -169.75784
29990000000 -1.6794162 -156.26189 -10.660233 106.71337 -10.661267 106.64886 -1.7240021 -170.40993
30000000000 -1.6834376 -156.8632 -10.668078 106.14559 -10.669409 106.12904 -1.7220583 -170.98695
30010000000 -1.6814951 -157.40724 -10.679228 105.55441 -10.681185 105.52296 -1.7249843 -171.6158
30020000000 -1.6759521 -157.95288 -10.675099 104.93791 -10.67537 104.95265 -1.7221999 -172.23807
30030000000 -1.6774442 -158.56328 -10.689578 104.37775 -10.689052 104.34175 -1.7240686 -172.84802
30040000000 -1.6768992 -159.10783 -10.693897 103.77682 -10.698371 103.74562 -1.7191634 -173.44763
30050000000 -1.6765945 -159.70781 -10.699527 103.19915 -10.697736 103.13573 -1.7146493 -174.06296
30060000000 -1.6786964 -160.24535 -10.709189 102.64069 -10.70904 102.6318 -1.7173066 -174.62177
30070000000 -1.6780971 -160.83955 -10.715085 102.09131 -10.717396 102.00458 -1.7149612 -175.21446
30080000000 -1.6759148 -161.38037 -10.721853 101.45565 -10.72298 101.44418 -1.7079667 -175.82558
30090000000 -1.6711735 -161.93718 -10.73287 100.94006 -10.726151 100.86903 -1.70588 -176.39465
30100000000 -1.664993 -162.45509 -10.730539 100.39582 -10.729439 100.33035 -1.7030535 -176.96236
30110000000 -1.6621879 -162.9687 -10.743159 99.81646 -10.744209 99.731087 -1.7116084 -177.58061
30120000000 -1.658097 -163.48088 -10.740141 99.199661 -10.745972 99.192322 -1.7040375 -178.15097
30130000000 -1.6565459 -163.98717 -10.753448 98.649902 -10.751227 98.587814 -1.7023367 -178.75153
30140000000 -1.6542695 -164.4633 -10.756266 98.051399 -10.752465 98.061211 -1.6989993 -179.33447
30150000000 -1.6599979 -164.92543 -10.764129 97.436455 -10.766674 97.45446 -1.6999491 -179.93596
30160000000 -1.6568959 -165.39946 -10.770267 97.005676 -10.766209 96.939186 -1.7009929 179.51517
30170000000 -1.6693219 -165.89343 -10.776279 96.413673 -10.774675 96.363235 -1.7054477 178.922
30180000000 -1.6745275 -166.43459 -10.772737 95.788223 -10.77298 95.740173 -1.7051858 178.32133
30190000000 -1.6812781 -166.96239 -10.768497 95.203003 -10.775247 95.183853 -1.7042279 177.74692
30200000000 -1.6921256 -167.52702 -10.777254 94.650421 -10.773645 94.622917 -1.7059376 177.17427
30210000000 -1.698006 -168.0741 -10.770413 94.053032 -10.770966 94.029976 -1.7041862 176.54626
30220000000 -1.7003191 -168.67657 -10.781302 93.521057 -10.776525 93.4729 -1.7117471 175.97633
30230000000 -1.7096924 -169.28279 -10.786674 92.91571 -10.789814 92.869102 -1.7149855 175.35158
30240000000 -1.7063985 -169.8759 -10.792194 92.393784 -10.788505 92.305908 -1.7130798 174.79402
30250000000 -1.7073646 -170.46712 -10.785686 91.686165 -10.783934 91.656067 -1.713341 174.12317
30260000000 -1.7082161 -171.03543 -10.791986 91.160561 -10.791118 91.122589 -1.7158204 173.51089
30270000000 -1.7096268 -171.61418 -10.79916 90.545044 -10.798976 90.509682 -1.7162862 172.87912
30280000000 -1.7088716 -172.13289 -10.801669 90.002205 -10.799681 89.935585 -1.7129304 172.25864
30290000000 -1.710932 -172.71854 -10.808553 89.352982 -10.81284 89.366432 -1.7141092 171.60864
30300000000 -1.7125218 -173.23137 -10.810061 88.824348 -10.810946 88.793755 -1.7103759 171.01094
30310000000 -1.7091844 -173.8011 -10.816982 88.194054 -10.808331 88.167229 -1.707516 170.41275
30320000000 -1.7194283 -174.37497 -10.818423 87.616913 -10.81198 87.571869 -1.7047975 169.79131
30330000000 -1.725998 -174.95192 -10.824694 87.029198 -10.832395 87.018898 -1.7046599 169.20804
30340000000 -1.7289371 -175.52138 -10.826489 86.468018 -10.826708 86.402992 -1.7019911 168.62134
30350000000 -1.7296017 -176.12531 -10.840373 85.873291 -10.83656 85.866295 -1.7079912 168.03439
30360000000 -1.7334731 -176.73112 -10.842107 85.292099 -10.838151 85.206177 -1.7031699 167.42628
30370000000 -1.7396742 -177.33301 -10.846896 84.716484 -10.857687 84.660149 -1.706568 166.85497
30380000000 -1.7384588 -177.9425 -10.85418 84.14048 -10.856909 84.079536 -1.704507 166.25018
30390000000 -1.7331825 -178.52032 -10.852356 83.583824 -10.862259 83.51059 -1.704072 165.64145
30400000000 -1.7318408 -179.10947 -10.871578 82.92984 -10.870407 82.968887 -1.7028358 165.06021
30410000000 -1.7274396 -179.61607 -10.873396 82.343292 -10.873895 82.353088 -1.70347 164.41805
30420000000 -1.7254233 179.83008 -10.8768 81.802086 -10.879438 81.823814 -1.7021486 163.83652
30430000000 -1.7159526 179.25504 -10.896537 81.267357 -10.893697 81.231628 -1.7055089 163.25267
30440000000 -1.7228225 178.7404 -10.89671 80.652397 -10.89827 80.580223 -1.7015184 162.62231
30450000000 -1.7187011 178.22797 -10.901561 80.07122 -10.896683 80.07309 -1.6976942 162.02693
30460000000 -1.7223153 177.71886 -10.909085 79.56794 -10.909341 79.499657 -1.6983846 161.46507
30470000000 -1.7216927 177.17682 -10.903214 78.929832 -10.909036 78.847084 -1.6917427 160.83473
30480000000 -1.7233199 176.67984 -10.912602 78.357979 -10.915248 78.355225 -1.6973188 160.2289
30490000000 -1.7284882 176.19275 -10.913069 77.826187 -10.911741 77.83345 -1.6894315 159.64711
30500000000 -1.7296839 175.6642 -10.926681 77.261322 -10.92434 77.246696 -1.6986582 159.09903
30510000000 -1.7385395 175.14281 -10.921958 76.719818 -10.931806 76.685768 -1.6927983 158.50443
30520000000 -1.7444376 174.5955 -10.934394 76.112465 -10.933047 76.104797 -1.6943723 157.89125
30530000000 -1.7458713 174.07616 -10.933897 75.538322 -10.929493 75.551704 -1.6944113 157.30617
30540000000 -1.7508252 173.47243 -10.937896 74.925049 -10.929316 74.923027 -1.6971351 156.69429
30550000000 -1.7524308 172.91414 -10.940329 74.420128 -10.946143 74.356934 -1.6995924 156.11111
30560000000 -1.758276 172.34952 -10.94426 73.829445 -10.947922 73.824463 -1.6942132 155.54669
30570000000 -1.7633877 171.73898 -10.944972 73.21315 -10.949501 73.161125 -1.6929237 154.91959
30580000000 -1.7650672 171.20767 -10.95443 72.654716 -10.951064 72.642853 -1.6920499 154.32869
30590000000 -1.7625883 170.64041 -10.953979 72.077652 -10.960286 72.027191 -1.6954829 153.71614
30600000000 -1.7630373 170.05846 -10.95334 71.473412 -10.948786 71.438889 -1.6895894 153.13641
30610000000 -1.7598816 169.51253 -10.947481 70.90976 -10.953688 70.860451 -1.693262 152.52963
30620000000 -1.7653004 168.98779 -10.959887 70.333588 -10.957167 70.331146 -1.6920686 151.93774
30630000000 -1.7690015 168.44183 -10.964165 69.788536 -10.962321 69.7649 -1.6983356 151.33192
30640000000 -1.7696263 167.94589 -10.97059 69.258209 -10.971059 69.170418 -1.6984684 150.72807
30650000000 -1.7749294 167.41386 -10.969968 68.635338 -10.973163 68.633537 -1.6929538 150.11165
30660000000 -1.7796482 166.83586 -10.968755 68.064552 -10.976222 68.033691 -1.6935441 149.51833
30670000000 -1.7852919 166.27242 -10.970885 67.411011 -10.973144 67.44175 -1.6935636 148.87863
30680000000 -1.7889076 165.70993 -10.968299 66.887779 -10.971756 66.864502 -1.6893189 148.32005
30690000000 -1.7917958 165.08687 -10.969613 66.246964 -10.977503 66.22261 -1.6872191 147.70013
30700000000 -1.7984866 164.47493 -10.982632 65.662369 -10.980936 65.604927 -1.6872619 147.10016
30710000000 -1.7972151 163.83763 -10.981009 65.097824 -10.986608 65.047493 -1.681694 146.55229
30720000000 -1.7994839 163.21693 -10.990695 64.479553 -10.989928 64.470474 -1.6848838 145.96355
30730000000 -1.7999638 162.60344 -10.995157 63.880295 -10.99474 63.861492 -1.6842612 145.39348
30740000000 -1.7951596 162.01257 -10.994984 63.316887 -10.991969 63.293743 -1.6788713 144.82819
30750000000 -1.7877156 161.47231 -11.0045 62.710972 -11.000492 62.722412 -1.6857096 144.22739
30760000000 -1.7790972 160.93719 -11.000054 62.176483 -11.007694 62.079727 -1.6796563 143.65141
30770000000 -1.7726021 160.43042 -11.010946 61.599648 -11.002409 61.576935 -1.6823598 143.04082
30780000000 -1.7666953 159.89491 -11.014703 61.019054 -11.016945 60.972076 -1.6930555 142.47569
30790000000 -1.7623879 159.42735 -11.008517 60.416698 -11.009461 60.399937 -1.687284 141.83229
30800000000 -1.7708793 158.93417 -11.023479 59.814365 -11.030967 59.804878 -1.6917316 141.20137
30810000000 -1.7687327 158.51964 -11.026126 59.320679 -11.027744 59.28973 -1.6959326 140.59146
30820000000 -1.7782282 157.98233 -11.025919 58.682499 -11.031699 58.623554 -1.6921268 139.94336
30830000000 -1.777249 157.47083 -11.02411 58.112152 -11.029053 58.061676 -1.6842806 139.33289
30840000000 -1.7923665 156.97623 -11.036401 57.513966 -11.041965 57.488209 -1.6886364 138.71353
30850000000 -1.7885963 156.4068 -11.028764 56.95945 -11.038857 56.921505 -1.6842699 138.12898
30860000000 -1.7978475 155.84668 -11.041906 56.347534 -11.038 56.29694 -1.6808103 137.5137
30870000000 -1.8020232 155.23277 -11.046354 55.775589 -11.043978 55.729111 -1.6760176 136.93867
30880000000 -1.7973635 154.67021 -11.040008 55.199543 -11.042146 55.144199 -1.6783966 136.38879
30890000000 -1.7980444 154.05437 -11.049312 54.52599 -11.047592 54.541168 -1.6749219 135.78079
30900000000 -1.7974746 153.50555 -11.051704 53.981342 -11.039774 53.945457 -1.6674119 135.19987
30910000000 -1.7946618 152.9059 -11.054837 53.419994 -11.049562 53.405293 -1.6653991 134.69945
30920000000 -1.7923998 152.39531 -11.060033 52.863628 -11.054698 52.777653 -1.667977 134.07813
30930000000 -1.7862847 151.85056 -11.056421 52.279285 -11.06434 52.213261 -1.6685798 133.53448
30940000000 -1.7913517 151.30264 -11.072641 51.651802 -11.069596 51.64764 -1.6699736 132.97034
30950000000 -1.7898234 150.74976 -11.071531 51.093029 -11.060852 51.062988 -1.6722971 132.42183
30960000000 -1.7941996 150.24266 -11.060834 50.512726 -11.0736 50.481392 -1.6739513 131.84377
30970000000 -1.7883067 149.66577 -11.063082 49.900688 -11.063643 49.856773 -1.6733998 131.24051
30980000000 -1.7951087 149.12138 -11.067405 49.275757 -11.064799 49.291298 -1.6777786 130.61639
30990000000 -1.8042859 148.55899 -11.068241 48.671345 -11.064074 48.673553 -1.6742899 130.00697
31000000000 -1.7997456 147.93771 -11.062481 48.147747 -11.070594 48.093235 -1.6847873 129.45271
31010000000 -1.8095821 147.32513 -11.073354 47.457047 -11.067688 47.471325 -1.6756676 128.80173
31020000000 -1.8076134 146.7305 -11.086053 46.945534 -11.086588 46.859062 -1.6919448 128.19568
31030000000 -1.8099591 146.1521 -11.080071 46.27087 -11.084756 46.244759 -1.6844748 127.54768
31040000000 -1.8062932 145.53668 -11.08804 45.661648 -11.094307 45.61974 -1.6857637 126.9223
31050000000 -1.7986809 144.93811 -11.087893 45.045902 -11.099888 45.02388 -1.6842092 126.25307
31060000000 -1.7979552 144.35587 -11.098808 44.419479 -11.098223 44.439877 -1.6773129 125.65181
31070000000 -1.7917063 143.79478 -11.104406 43.83329 -11.103271 43.835117 -1.677202 125.02365
31080000000 -1.7879218 143.24379 -11.098427 43.261993 -11.100875 43.273636 -1.6670939 124.44694
31090000000 -1.7806953 142.70552 -11.111995 42.671902 -11.106203 42.612331 -1.6724782 123.81468
31100000000 -1.7729151 142.14854 -11.112388 42.077057 -11.107297 42.054279 -1.668573 123.27221
31110000000 -1.7786885 141.61203 -11.126686 41.464222 -11.132389 41.444569 -1.6692253 122.71024
31120000000 -1.7746408 141.06245 -11.126405 40.919975 -11.121882 40.876133 -1.6608505 122.1114
31130000000 -1.7780223 140.5488 -11.125582 40.307831 -11.131409 40.282207 -1.6639779 121.513
31140000000 -1.7822325 140.00171 -11.129588 39.690483 -11.128485 39.638474 -1.6622012 120.92386
31150000000 -1.7806525 139.44493 -11.136716 39.094875 -11.134233 39.083878 -1.6667838 120.33201
31160000000 -1.7838404 138.92632 -11.136174 38.607849 -11.138846 38.530445 -1.6659495 119.76814
31170000000 -1.7890339 138.35791 -11.142746 37.99963 -11.131865 37.890026 -1.6646944 119.13766
31180000000 -1.7878394 137.74739 -11.138594 37.3321 -11.144754 37.31089 -1.6682647 118.55225
31190000000 -1.7883774 137.12964 -11.150143 36.707165 -11.150779 36.680546 -1.6719186 117.92046
31200000000 -1.7912117 136.59302 -11.159394 36.172676 -11.157389 36.136234 -1.6700447 117.30294
31210000000 -1.7906995 135.98436 -11.158524 35.543148 -11.160142 35.499977 -1.6665118 116.65574
31220000000 -1.7857207 135.40018 -11.16186 34.976593 -11.159704 34.897121 -1.6656204 116.05571
31230000000 -1.7814955 134.81012 -11.164955 34.389965 -11.159321 34.319859 -1.6554343 115.46947
31240000000 -1.7769232 134.21181 -11.170985 33.737663 -11.167157 33.723579 -1.6643898 114.90751
31250000000 -1.7730031 133.66983 -11.17252 33.150139 -11.171057 33.118805 -1.6559614 114.30027
31260000000 -1.768898 133.11475 -11.177249 32.609028 -11.17184 32.567169 -1.6523911 113.76293
31270000000 -1.765618 132.5883 -11.182719 32.038235 -11.181918 31.986671 -1.6508019 113.15652
31280000000 -1.7651625 132.04538 -11.190844 31.429779 -11.182547 31.412767 -1.6473329 112.62189
31290000000 -1.7683659 131.51811 -11.188781 30.829559 -11.182596 30.750086 -1.6418031 111.98277
31300000000 -1.7706792 130.96913 -11.192164 30.249846 -11.195903 30.18693 -1.6485772 111.43951
31310000000 -1.7704986 130.45677 -11.188262 29.636946 -11.198321 29.666248 -1.6462383 110.86311
31320000000 -1.7795378 129.87634 -11.203752 29.048891 -11.20263 29.051004 -1.6538584 110.2645
31330000000 -1.7767715 129.31061 -11.191925 28.494316 -11.19733 28.502415 -1.6459154 109.70035
31340000000 -1.7832136 128.72322 -11.205667 27.925762 -11.209327 27.912052 -1.6511976 109.13605
31350000000 -1.7841769 128.11769 -11.199489 27.295425 -11.207032 27.242249 -1.6461631 108.49933
31360000000 -1.7863714 127.52141 -11.202642 26.703266 -11.211926 26.730986 -1.6458368 107.922
31370000000 -1.7805066 126.93758 -11.21581 26.131571 -11.212171 26.090387 -1.6481251 107.31114
31380000000 -1.7850975 126.30055 -11.219049 25.484047 -11.220871 25.491085 -1.6496505 106.73312
31390000000 -1.781023 125.72672 -11.226884 24.930573 -11.229858 24.926373 -1.6498299 106.15121
31400000000 -1.7770934 125.16644 -11.228164 24.382727 -11.228583 24.344378 -1.6455142 105.56467
31410000000 -1.7788742 124.57508 -11.229078 23.774464 -11.233736 23.766121 -1.6452307 105.00835
31420000000 -1.7679034 124.05164 -11.2351 23.172808 -11.230253 23.145311 -1.6438067 104.41283
31430000000 -1.7692504 123.441 -11.235185 22.59236 -11.229819 22.546108 -1.6402904 103.87318
31440000000 -1.765999 122.89568 -11.240914 22.042862 -11.236217 21.94668 -1.6406802 103.28222
31450000000 -1.7692387 122.36426 -11.24124 21.374199 -11.244549 21.331842 -1.6412864 102.64268
31460000000 -1.7676059 121.84681 -11.245732 20.86314 -11.246302 20.819805 -1.6439892 102.15416
31470000000 -1.7653956 121.28911 -11.251646 20.280712 -11.24458 20.197327 -1.6473905 101.52977
31480000000 -1.7737532 120.77362 -11.258444 19.651009 -11.251173 19.662601 -1.6524974 100.90994
31490000000 -1.7737235 120.18507 -11.252522 19.056917 -11.249756 19.07954 -1.6506141 100.32579
31500000000 -1.7727808 119.62243 -11.257683 18.519732 -11.257465 18.491697 -1.6584709 99.709251
31510000000 -1.7765416 119.0786 -11.264392 17.922577 -11.259216 17.90881 -1.6560801 99.113831
31520000000 -1.7770716 118.48782 -11.256844 17.325167 -11.253922 17.302103 -1.6573777 98.484077
31530000000 -1.7769337 117.89172 -11.255712 16.669836 -11.271348 16.663866 -1.6608683 97.826569
31540000000 -1.7864151 117.33297 -11.272845 16.100405 -11.267174 16.053053 -1.6556268 97.17424
31550000000 -1.7842374 116.73615 -11.273969 15.542753 -11.278845 15.440805 -1.655953 96.579842
31560000000 -1.7890347 116.1183 -11.286443 14.868069 -11.280898 14.874477 -1.6500869 95.959343
31570000000 -1.7871546 115.51676 -11.288881 14.272899 -11.28695 14.25139 -1.6485624 95.332939
31580000000 -1.7850362 114.95213 -11.285421 13.717544 -11.291967 13.690009 -1.6415678 94.770409
31590000000 -1.7857945 114.38086 -11.296379 13.153131 -11.295355 13.127277 -1.636577 94.171463
31600000000 -1.7849499 113.8096 -11.306369 12.497473 -11.304767 12.501566 -1.6376987 93.609734
31610000000 -1.7764648 113.22253 -11.304908 11.909139 -11.309386 11.890059 -1.6354508 93.048981
31620000000 -1.7774798 112.68835 -11.307593 11.357169 -11.299967 11.343097 -1.626045 92.496201
31630000000 -1.7715716 112.17223 -11.307549 10.808849 -11.306996 10.816289 -1.6213137 91.963722
31640000000 -1.77227 111.58743 -11.310794 10.156598 -11.308686 10.138356 -1.6276639 91.366516
31650000000 -1.7702776 111.06885 -11.312646 9.6539087 -11.309422 9.5976706 -1.6278498 90.833855
31660000000 -1.7813339 110.51161 -11.318626 9.0738869 -11.311686 9.0542479 -1.6268393 90.308846
31670000000 -1.7854137 109.96265 -11.316314 8.450839 -11.314597 8.3659134 -1.6307583 89.684776
31680000000 -1.7864527 109.41756 -11.316485 7.8827043 -11.312099 7.8589368 -1.6359175 89.129395
31690000000 -1.7951267 108.84233 -11.321751 7.2717037 -11.315991 7.2311411 -1.6364254 88.503014
31700000000 -1.8029625 108.26369 -11.314291 6.6485009 -11.324615 6.6145954 -1.6372333 87.871384
31710000000 -1.8068045 107.68446 -11.319467 6.101727 -11.321489 6.0743895 -1.6397432 87.286949
31720000000 -1.8059585 107.0251 -11.321028 5.4798102 -11.325387 5.4757309 -1.6433992 86.709488
31730000000 -1.8082559 106.41543 -11.322417 4.8824902 -11.329655 4.8529992 -1.641994 86.068947
31740000000 -1.8111138 105.78851 -11.330971 4.2885823 -11.325301 4.2801123 -1.6394042 85.47821
31750000000 -1.8128605 105.22043 -11.333555 3.7017 -11.331072 3.7303154 -1.6362318 84.921669
31760000000 -1.808851 104.57201 -11.331748 3.12659 -11.330389 3.128511 -1.6327424 84.343231
31770000000 -1.8100628 103.9686 -11.340838 2.4998891 -11.344316 2.4905577 -1.6311224 83.739044
31780000000 -1.8078033 103.40852 -11.348989 1.9696448 -11.342508 1.9253203 -1.6290728 83.181183
31790000000 -1.8040286 102.82471 -11.34141 1.3165436 -11.345374 1.2973193 -1.6265272 82.588318
31800000000 -1.8033447 102.27964 -11.346813 0.71854568 -11.343884 0.70931739 -1.6263072 81.967392
31810000000 -1.8040918 101.69037 -11.354177 0.11014806 -11.346991 0.097092748 -1.6262523 81.432228
31820000000 -1.7990205 101.13342 -11.351483 -0.44385311 -11.352267 -0.48705342 -1.6354618 80.852058
31830000000 -1.8079741 100.5971 -11.356484 -1.02247 -11.354629 -1.0371733 -1.6308345 80.253365
31840000000 -1.8148721 100.02793 -11.356675 -1.6550778 -11.35607 -1.6954089 -1.6331379 79.649368
31850000000 -1.8157898 99.438972 -11.357381 -2.2392213 -11.3569 -2.2705491 -1.6363027 79.047043
31860000000 -1.8213624 98.852722 -11.365079 -2.8847601 -11.364221 -2.9004354 -1.6425743 78.430107
31870000000 -1.8239436 98.292999 -11.361506 -3.4009328 -11.358227 -3.4569223 -1.6327748 77.83358
31880000000 -1.8270622 97.708145 -11.372389 -4.0098152 -11.371125 -4.0804391 -1.640258 77.208611
31890000000 -1.8295265 97.115257 -11.37645 -4.6140242 -11.373321 -4.6487098 -1.6394767 76.568245
31900000000 -1.8280566 96.512093 -11.379153 -5.2355151 -11.375868 -5.2111473 -1.6373091 75.970993
31910000000 -1.8269577 95.94838 -11.383183 -5.7630472 -11.385962 -5.7909856 -1.6305692 75.409256
31920000000 -1.8313206 95.341103 -11.385914 -6.3706436 -11.377932 -6.4448738 -1.6194773 74.820869
31930000000 -1.8305231 94.76017 -11.393788 -6.976748 -11.389999 -7.0231094 -1.6224663 74.240326
31940000000 -1.8322197 94.186325 -11.386389 -7.5333886 -11.386248 -7.5955257 -1.6079994 73.646446
31950000000 -1.8301668 93.595726 -11.399909 -8.1709461 -11.399029 -8.2284393 -1.614163 73.117271
31960000000 -1.8324119 93.026245 -11.39565 -8.738718 -11.396605 -8.7599277 -1.6108797 72.57267
31970000000 -1.8321759 92.45771 -11.401838 -9.279356 -11.39817 -9.3530712 -1.6094893 72.053986
31980000000 -1.8361801 91.892082 -11.401752 -9.8753958 -11.396369 -9.919733 -1.6155211 71.462051
31990000000 -1.837077 91.290291 -11.397986 -10.50761 -11.397458 -10.57373 -1.6205926 70.867554
32000000000 -1.8427184 90.709778 -11.401513 -11.136086 -11.404409 -11.181795 -1.6223752 70.339584
32010000000 -1.841903 90.120232 -11.403337 -11.71439 -11.402189 -11.764768 -1.6244884 69.713737
32020000000 -1.8457887 89.55822 -11.404962 -12.358197 -11.405171 -12.374161 -1.6364034 69.100487
32030000000 -1.8479496 88.974937 -11.402439 -12.887978 -11.404999 -12.939225 -1.6308891 68.487228
32040000000 -1.850037 88.407242 -11.40693 -13.520509 -11.40951 -13.558922 -1.6363072 67.862839
32050000000 -1.8487622 87.808434 -11.400039 -14.084815 -11.404294 -14.135353 -1.6333607 67.22644
32060000000 -1.8528258 87.197128 -11.407634 -14.708587 -11.411625 -14.736106 -1.6316899 66.62558
32070000000 -1.854727 86.602882 -11.405482 -15.292087 -11.405015 -15.324305 -1.6258936 66.011932
32080000000 -1.8637983 86.022179 -11.417051 -15.929714 -11.411905 -15.947509 -1.623149 65.399109
32090000000 -1.8661109 85.397293 -11.419199 -16.497881 -11.420214 -16.511852 -1.6172581 64.830154
32100000000 -1.869803 84.782219 -11.432508 -17.119492 -11.42743 -17.171185 -1.6134667 64.272308
32110000000 -1.874373 84.180756 -11.426235 -17.71174 -11.429996 -17.75421 -1.6103402 63.696209
32120000000 -1.8727399 83.587334 -11.429719 -18.336393 -11.421014 -18.312014 -1.607026 63.14624
32130000000 -1.8725021 82.978073 -11.434157 -18.909643 -11.434714 -18.941301 -1.6091242 62.599045
32140000000 -1.8711175 82.39534 -11.435076 -19.426346 -11.434833 -19.46509 -1.6098044 62.04406
32150000000 -1.8676496 81.782852 -11.42567 -20.022787 -11.437092 -20.11297 -1.6121262 61.500813
32160000000 -1.8679309 81.192307 -11.426146 -20.656557 -11.422599 -20.679745 -1.6144694 60.932495
32170000000 -1.8722256 80.628548 -11.435178 -21.255709 -11.436301 -21.272032 -1.619416 60.334751
32180000000 -1.8774722 80.029099 -11.44395 -21.855768 -11.435565 -21.854492 -1.6225626 59.779816
32190000000 -1.8818573 79.446548 -11.435914 -22.437037 -11.437081 -22.490198 -1.6207178 59.16217
32200000000 -1.8859324 78.846535 -11.442521 -23.092836 -11.435358 -23.138826 -1.6286438 58.576309
32210000000 -1.8868357 78.255409 -11.435578 -23.702616 -11.43647 -23.713827 -1.6281341 57.960419
32220000000 -1.8946086 77.647522 -11.432376 -24.292515 -11.439881 -24.305628 -1.6252086 57.342152
32230000000 -1.8956559 77.032677 -11.442161 -24.834484 -11.444537 -24.931202 -1.6267252 56.730015
32240000000 -1.9056754 76.436378 -11.45112 -25.509966 -11.443962 -25.506374 -1.6267922 56.112797
32250000000 -1.9043095 75.790779 -11.436925 -26.087444 -11.439639 -26.089817 -1.6233386 55.516228
32260000000 -1.9052134 75.158417 -11.439389 -26.703096 -11.442195 -26.717329 -1.6215153 54.925777
32270000000 -1.9070638 74.530243 -11.447046 -27.257925 -11.443727 -27.320852 -1.617538 54.346973
32280000000 -1.9088902 73.875023 -11.451014 -27.921999 -11.445438 -27.927216 -1.6191082 53.793854
32290000000 -1.9113271 73.262642 -11.449519 -28.504175 -11.455453 -28.524698 -1.6173869 53.236519
32300000000 -1.9092228 72.637199 -11.448161 -29.081717 -11.45062 -29.103214 -1.6103988 52.678825
32310000000 -1.9071369 72.034271 -11.451887 -29.688515 -11.458419 -29.687622 -1.6119999 52.106312
32320000000 -1.907114 71.448723 -11.455673 -30.296854 -11.454331 -30.321983 -1.6128156 51.541283
32330000000 -1.9045295 70.862534 -11.461757 -30.867046 -11.458411 -30.921793 -1.6165609 50.980003
32340000000 -1.9055806 70.285492 -11.457464 -31.504143 -11.456824 -31.547056 -1.6211362 50.368
32350000000 -1.9043102 69.696518 -11.460358 -32.08482 -11.462065 -32.146751 -1.6205158 49.790936
32360000000 -1.9082727 69.128448 -11.464654 -32.690697 -11.458961 -32.744022 -1.6269265 49.172836
32370000000 -1.9142661 68.5588 -11.460711 -33.277203 -11.459745 -33.34523 -1.6308212 48.56316
32380000000 -1.9211435 67.954437 -11.465776 -33.931152 -11.461972 -33.960136 -1.6347889 47.958897
32390000000 -1.9241307 67.330582 -11.463691 -34.563663 -11.468122 -34.550587 -1.6302855 47.336533
32400000000 -1.9278147 66.71521 -11.467192 -35.126312 -11.461961 -35.166405 -1.6303145 46.731174
32410000000 -1.9358729 66.07814 -11.467407 -35.793732 -11.464454 -35.794415 -1.6279297 46.130638
32420000000 -1.9392182 65.439438 -11.469791 -36.392288 -11.470019 -36.394051 -1.6284629 45.501408
32430000000 -1.9401414 64.832527 -11.476164 -36.937973 -11.472895 -37.002052 -1.6226751 44.927364
32440000000 -1.9415421 64.192024 -11.478738 -37.537338 -11.476079 -37.527843 -1.6213942 44.342594
32450000000 -1.9426093 63.56189 -11.478791 -38.137825 -11.475152 -38.164963 -1.6167457 43.772533
32460000000 -1.9411273 62.925476 -11.46992 -38.726616 -11.473765 -38.803745 -1.6137344 43.174885
32470000000 -1.941188 62.292351 -11.478658 -39.33569 -11.483621 -39.383869 -1.6120843 42.618118
32480000000 -1.9368678 61.67659 -11.47981 -39.926186 -11.479469 -39.932407 -1.6055298 42.077003
32490000000 -1.9378574 61.065411 -11.491014 -40.524418 -11.478504 -40.570793 -1.6079166 41.503639
32500000000 -1.940133 60.441944 -11.486617 -41.166389 -11.482175 -41.179329 -1.6091253 40.954376
32510000000 -1.9415401 59.834717 -11.48941 -41.763523 -11.486532 -41.814278 -1.6064928 40.395977
32520000000 -1.940485 59.236092 -11.491737 -42.336834 -11.49112 -42.381744 -1.6080189 39.855656
32530000000 -1.9463414 58.634258 -11.491421 -42.955471 -11.496613 -42.98135 -1.6103032 39.27169
32540000000 -1.9459683 58.026924 -11.489981 -43.595081 -11.495968 -43.615101 -1.6141781 38.719887
32550000000 -1.9515225 57.426414 -11.498876 -44.165131 -11.496278 -44.178059 -1.6164186 38.149574
32560000000 -1.9516572 56.810627 -11.492921 -44.734802 -11.494141 -44.820648 -1.6194423 37.600536
32570000000 -1.9542226 56.211933 -11.492844 -45.333637 -11.490236 -45.393948 -1.61903 36.995865
32580000000 -1.955268 55.603878 -11.491825 -45.985382 -11.489399 -46.026035 -1.6243683 36.399719
32590000000 -1.9617678 54.98671 -11.491645 -46.599834 -11.493855 -46.638008 -1.62546 35.800343
32600000000 -1.9622892 54.374126 -11.487255 -47.202065 -11.487521 -47.266232 -1.627828 35.200439
32610000000 -1.9671286 53.779274 -11.486133 -47.849277 -11.483801 -47.868774 -1.6297557 34.580246
32620000000 -1.9726844 53.158127 -11.488583 -48.435196 -11.489875 -48.483475 -1.6320055 33.989975
32630000000 -1.9803987 52.529911 -11.489579 -49.043045 -11.485515 -49.097187 -1.6316297 33.365959
32640000000 -1.9824077 51.894287 -11.494705 -49.665657 -11.490956 -49.720909 -1.6384418 32.762413
32650000000 -1.9901589 51.256287 -11.499259 -50.309345 -11.487914 -50.395294 -1.6378039 32.132504
32660000000 -1.9965008 50.622253 -11.497768 -50.949692 -11.496083 -50.951817 -1.6335262 31.532341
32670000000 -1.9976788 49.949039 -11.501897 -51.504234 -11.493673 -51.526733 -1.6275057 30.949005
32680000000 -2.0015886 49.276905 -11.497567 -52.165028 -11.493232 -52.167297 -1.624649 30.338861
32690000000 -2.0019424 48.629593 -11.492481 -52.739979 -11.499398 -52.807323 -1.6253746 29.768486
32700000000 -2.0008893 47.962379 -11.497693 -53.414787 -11.496322 -53.420605 -1.6229215 29.20121
32710000000 -1.9986839 47.33503 -11.49691 -53.990479 -11.496608 -54.045464 -1.622381 28.613169
32720000000 -1.9949696 46.693039 -11.495871 -54.648602 -11.496353 -54.665417 -1.6280302 28.050188
32730000000 -1.9945681 46.064419 -11.503117 -55.190804 -11.501631 -55.25742 -1.6230997 27.453047
32740000000 -1.9946266 45.458679 -11.50121 -55.81974 -11.496613 -55.829037 -1.6211501 26.865223
32750000000 -1.9954877 44.817631 -11.502547 -56.505413 -11.506665 -56.502323 -1.6212686 26.267933
32760000000 -1.9970806 44.200848 -11.504542 -57.087246 -11.501865 -57.106419 -1.6215345 25.673941
32770000000 -1.9980278 43.597801 -11.501657 -57.712116 -11.50499 -57.714272 -1.619931 25.101574
32780000000 -2.000088 42.96188 -11.501351 -58.256344 -11.509807 -58.2873 -1.6204294 24.525686
32790000000 -2.0072668 42.3316 -11.513721 -58.866657 -11.505699 -58.96402 -1.621783 23.908869
32800000000 -2.008841 41.723469 -11.504115 -59.47739 -11.508296 -59.563026 -1.6181324 23.338457
32810000000 -2.0126445 41.080021 -11.510382 -60.115017 -11.512428 -60.11639 -1.6143856 22.772676
32820000000 -2.0113108 40.453911 -11.51229 -60.728989 -11.510536 -60.793221 -1.6105882 22.187567
32830000000 -2.0096321 39.844803 -11.5166 -61.34005 -11.513594 -61.390507 -1.6092058 21.604593
32840000000 -2.0131679 39.216221 -11.512613 -61.910194 -11.517798 -61.932392 -1.6053215 21.083141
32850000000 -2.012006 38.601707 -11.51732 -62.567322 -11.512686 -62.61462 -1.6052451 20.495098
32860000000 -2.0117345 38.012615 -11.507956 -63.126228 -11.512283 -63.134293 -1.6046543 19.972229
32870000000 -2.0141537 37.403355 -11.517696 -63.757507 -11.512762 -63.771564 -1.6054957 19.4058
32880000000 -2.0186977 36.837948 -11.518298 -64.36937 -11.513769 -64.361145 -1.6039618 18.826759
32890000000 -2.0236223 36.204494 -11.508395 -64.978256 -11.519014 -65.017754 -1.6094297 18.263042
32900000000 -2.0284581 35.611359 -11.506446 -65.525185 -11.502516 -65.596916 -1.609888 17.721567
32910000000 -2.037194 34.935215 -11.515736 -66.204987 -11.502956 -66.314125 -1.6105106 17.143824
32920000000 -2.0429947 34.292213 -11.51115 -66.790375 -11.514227 -66.872787 -1.6139097 16.588531
32930000000 -2.0574613 33.629913 -11.509866 -67.475914 -11.51382 -67.479614 -1.6149555 16.019159
32940000000 -2.064662 32.964722 -11.515982 -68.023361 -11.503747 -68.123749 -1.61572 15.450115
32950000000 -2.068603 32.271793 -11.511582 -68.679443 -11.504982 -68.710373 -1.6175849 14.853843
32960000000 -2.0729825 31.56193 -11.51326 -69.351555 -11.51088 -69.411873 -1.6180648 14.251851
32970000000 -2.0759373 30.89864 -11.51494 -69.941292 -11.513414 -69.978752 -1.6219209 13.672608
32980000000 -2.0748153 30.219189 -11.503465 -70.609932 -11.507653 -70.601723 -1.6199017 13.078898
32990000000 -2.0726438 29.508701 -11.503058 -71.241219 -11.505253 -71.306602 -1.6233544 12.507651
33000000000 -2.0705969 28.88805 -11.513252 -71.852097 -11.504743 -71.856064 -1.6301197 11.917912
33010000000 -2.072217 28.210308 -11.510933 -72.439651 -11.514317 -72.504272 -1.6312027 11.335213
33020000000 -2.0672429 27.53167 -11.50435 -73.133049 -11.503955 -73.155991 -1.6319436 10.720721
33030000000 -2.0712826 26.909386 -11.504526 -73.714394 -11.505088 -73.745338 -1.6262147 10.122301
33040000000 -2.0729024 26.267796 -11.518026 -74.340187 -11.510947 -74.427612 -1.6270595 9.4947453
33050000000 -2.0708869 25.642273 -11.514482 -74.98793 -11.519749 -75.09639 -1.6250716 8.8940134
33060000000 -2.0688243 25.017792 -11.520692 -75.660393 -11.518508 -75.66555 -1.6198614 8.263031
33070000000 -2.0722628 24.407478 -11.516658 -76.242134 -11.514119 -76.246086 -1.6204065 7.6687622
33080000000 -2.0696609 23.783051 -11.52234 -76.819603 -11.51535 -76.846619 -1.6154493 7.0953307
33090000000 -2.073168 23.194216 -11.522421 -77.495743 -11.520392 -77.460884 -1.6083256 6.5198126
33100000000 -2.0712736 22.564259 -11.517283 -78.105774 -11.519638 -78.08007 -1.6085895 5.9776907
33110000000 -2.0676844 21.964211 -11.514274 -78.662193 -11.510827 -78.66597 -1.6045761 5.4132962
33120000000 -2.0727372 21.333565 -11.522846 -79.287598 -11.520404 -79.274307 -1.6059337 4.8583379
33130000000 -2.0796514 20.769117 -11.521129 -79.853394 -11.514021 -79.917435 -1.6064036 4.3177996
33140000000 -2.0812223 20.145174 -11.522659 -80.494514 -11.52519 -80.55999 -1.6069072 3.7554984
33150000000 -2.0904636 19.556839 -11.525886 -81.108658 -11.518647 -81.15535 -1.6102004 3.1791306
33160000000 -2.0964973 18.907106 -11.517122 -81.713936 -11.525434 -81.7603 -1.6126081 2.6308634
33170000000 -2.0997462 18.290932 -11.518229 -82.324432 -11.520593 -82.380096 -1.6164993 2.0630255
33180000000 -2.1066091 17.653563 -11.521688 -82.97657 -11.523016 -83.006531 -1.6215228 1.4510558
33190000000 -2.1177492 16.987656 -11.513827 -83.505157 -11.51197 -83.563316 -1.6226054 0.89288628
33200000000 -2.1203458 16.313046 -11.522272 -84.240051 -11.519107 -84.275291 -1.6232942 0.26282004
33210000000 -2.1283 15.679794 -11.527599 -84.831261 -11.526102 -84.851387 -1.6221899 -0.33991265
33220000000 -2.1251235 14.996236 -11.518571 -85.483391 -11.52507 -85.460342 -1.6167412 -0.90489173
33230000000 -2.1297779 14.413892 -11.509945 -86.092125 -11.520465 -86.158592 -1.6148801 -1.5085838
33240000000 -2.1288567 13.732255 -11.523109 -86.704567 -11.502677 -86.749199 -1.6155503 -2.0948381
33250000000 -2.1307375 13.107694 -11.518961 -87.269936 -11.518912 -87.368858 -1.6142437 -2.6586404
33260000000 -2.1341875 12.468143 -11.518163 -87.914993 -11.512689 -88.004761 -1.6143852 -3.194288
33270000000 -2.1408942 11.858037 -11.516315 -88.659485 -11.511015 -88.614555 -1.6112555 -3.8065379
33280000000 -2.1428034 11.202392 -11.510666 -89.196152 -11.509933 -89.271782 -1.613951 -4.3702998
33290000000 -2.1557851 10.556021 -11.506746 -89.795944 -11.512387 -89.829407 -1.6102724 -4.9176583
33300000000 -2.1620672 9.9239187 -11.511184 -90.486732 -11.509115 -90.50177 -1.6119924 -5.5181952
33310000000 -2.1680675 9.270277 -11.506045 -91.112129 -11.500414 -91.144554 -1.6126246 -6.1146517
33320000000 -2.1784599 8.5383816 -11.507526 -91.72419 -11.506598 -91.792839 -1.6171334 -6.7080941
33330000000 -2.1843348 7.8368506 -11.512172 -92.380264 -11.509221 -92.432022 -1.6179827 -7.3014312
33340000000 -2.1831882 7.1374321 -11.502207 -93.010468 -11.500215 -93.070572 -1.6180685 -7.8886003
33350000000 -2.1907234 6.421114 -11.511722 -93.606392 -11.513182 -93.699135 -1.6201392 -8.5066662
33360000000 -2.1898439 5.7239065 -11.507093 -94.316376 -11.501247 -94.365417 -1.6172423 -9.1102791
33370000000 -2.1840975 5.0298758 -11.512753 -94.946236 -11.500646 -94.956741 -1.6145099 -9.6930552
33380000000 -2.188724 4.3549004 -11.506214 -95.585976 -11.50473 -95.614075 -1.6023765 -10.24972
33390000000 -2.1855273 3.7344427 -11.502937 -96.172028 -11.506794 -96.177391 -1.6041685 -10.808903
33400000000 -2.1903222 3.1053762 -11.511936 -96.794434 -11.503598 -96.825142 -1.595757 -11.399665
33410000000 -2.1852114 2.413264 -11.509193 -97.423637 -11.518341 -97.499092 -1.5923806 -11.935969
33420000000 -2.1921864 1.7774848 -11.507744 -98.041069 -11.509605 -98.0924 -1.5940225 -12.484191
33430000000 -2.1958175 1.1617696 -11.506655 -98.580841 -11.503298 -98.695229 -1.5901794 -12.985371
33440000000 -2.200623 0.51562035 -11.50503 -99.197388 -11.517105 -99.312668 -1.5902907 -13.514995
33450000000 -2.2038524 -0.1296227 -11.508747 -99.903694 -11.510273 -99.920456 -1.5915684 -14.033629
33460000000 -2.209857 -0.7427851 -11.510886 -100.58121 -11.501761 -100.5368 -1.5921215 -14.606534
33470000000 -2.2064993 -1.3920258 -11.501451 -101.11269 -11.499331 -101.19249 -1.5973358 -15.128152
33480000000 -2.2114916 -2.0417135 -11.500075 -101.71289 -11.507847 -101.74972 -1.6044577 -15.660671
33490000000 -2.2225227 -2.7282391 -11.508691 -102.38329 -11.498518 -102.39282 -1.6047753 -16.269947
33500000000 -2.2229652 -3.3612978 -11.495329 -102.97871 -11.491288 -103.03679 -1.6098287 -16.820021
33510000000 -2.2308373 -4.0461016 -11.505306 -103.62166 -11.50327 -103.67403 -1.6151042 -17.453217
33520000000 -2.2312541 -4.6892681 -11.498106 -104.19521 -11.496441 -104.30848 -1.6137302 -18.008209
33530000000 -2.2354026 -5.3385272 -11.49272 -104.89604 -11.494712 -104.87446 -1.6134183 -18.620699
33540000000 -2.2387025 -5.9475284 -11.491613 -105.4511 -11.489332 -105.51698 -1.6188636 -19.187027
33550000000 -2.2434616 -6.6531506 -11.486732 -106.09923 -11.496361 -106.13213 -1.6194078 -19.766029
33560000000 -2.2526975 -7.3436275 -11.494993 -106.79964 -11.492936 -106.84931 -1.6148181 -20.3547
33570000000 -2.2490578 -7.9622154 -11.490419 -107.40031 -11.493533 -107.42102 -1.6142696 -20.938234
33580000000 -2.2530863 -8.633235 -11.48046 -107.98707 -11.483053 -108.07404 -1.6059655 -21.494505
33590000000 -2.2579424 -9.2925072 -11.491137 -108.61878 -11.485555 -108.70656 -1.6081744 -22.090937
33600000000 -2.2633326 -9.9290895 -11.482171 -109.27419 -11.486646 -109.35131 -1.6121285 -22.669601
33610000000 -2.2618194 -10.58289 -11.476877 -109.93118 -11.478782 -109.99385 -1.608793 -23.269735
33620000000 -2.2732682 -11.23429 -11.48565 -110.60251 -11.481228 -110.59414 -1.6071721 -23.844301
33630000000 -2.2660356 -11.897494 -11.487441 -111.19794 -11.483828 -111.19739 -1.6157362 -24.437241
33640000000 -2.2753227 -12.52401 -11.464893 -111.87227 -11.474425 -111.88091 -1.6127653 -25.013161
33650000000 -2.2797823 -13.225706 -11.464004 -112.46799 -11.473103 -112.5316 -1.6125067 -25.570477
33660000000 -2.2840278 -13.838883 -11.462565 -113.14636 -11.468402 -113.16496 -1.6119106 -26.162769
33670000000 -2.2916174 -14.519804 -11.459753 -113.73279 -11.46235 -113.78903 -1.6046188 -26.736931
33680000000 -2.3024693 -15.191298 -11.46686 -114.41341 -11.472103 -114.40311 -1.6017659 -27.331953
33690000000 -2.3077574 -15.859083 -11.459035 -115.00665 -11.456612 -115.06879 -1.5956075 -27.870134
33700000000 -2.3146999 -16.572138 -11.457302 -115.65146 -11.46592 -115.68781 -1.6006629 -28.423334
33710000000 -2.3168578 -17.257113 -11.452202 -116.31451 -11.461526 -116.31726 -1.5950357 -28.986559
33720000000 -2.3227336 -17.94347 -11.456929 -116.90937 -11.458571 -116.9396 -1.5979357 -29.524435
33730000000 -2.3224649 -18.606737 -11.444141 -117.55543 -11.449643 -117.58892 -1.5917379 -30.05999
33740000000 -2.3280985 -19.327297 -11.45138 -118.28546 -11.436509 -118.25925 -1.5896968 -30.56341
33750000000 -2.3325467 -19.969423 -11.437922 -118.82436 -11.444521 -118.80801 -1.5948461 -31.132946
33760000000 -2.3357439 -20.681492 -11.436915 -119.45367 -11.449012 -119.50609 -1.5959824 -31.701859
33770000000 -2.3446586 -21.324556 -11.442941 -120.13113 -11.438823 -120.09388 -1.5970423 -32.207947
33780000000 -2.3479617 -22.00955 -11.43109 -120.69964 -11.439012 -120.75695 -1.6030713 -32.746067
33790000000 -2.35464 -22.733652 -11.429185 -121.42931 -11.428378 -121.378 -1.6037499 -33.308243
33800000000 -2.3628991 -23.396374 -11.426388 -122.00551 -11.424418 -122.06291 -1.6015589 -33.875584
33810000000 -2.367017 -24.037125 -11.418279 -122.6694 -11.426625 -122.71245 -1.6036521 -34.485943
33820000000 -2.377871 -24.779028 -11.425644 -123.33806 -11.423884 -123.34396 -1.6092336 -35.03574
33830000000 -2.3839576 -25.442169 -11.419271 -123.90297 -11.418526 -123.98084 -1.6046814 -35.610966
33840000000 -2.3861165 -26.164564 -11.414771 -124.61571 -11.409485 -124.60586 -1.602819 -36.197685
33850000000 -2.3933592 -26.867563 -11.415989 -125.23477 -11.40963 -125.27327 -1.6114764 -36.732845
33860000000 -2.4005947 -27.567392 -11.398745 -125.86606 -11.403961 -125.91951 -1.6074135 -37.28038
33870000000 -2.4036927 -28.306208 -11.406362 -126.4967 -11.397413 -126.57993 -1.6089872 -37.866753
33880000000 -2.4063866 -29.002934 -11.400002 -127.16206 -11.401608 -127.1924 -1.6139667 -38.437981
33890000000 -2.4034455 -29.691423 -11.383661 -127.79275 -11.387951 -127.9251 -1.6062672 -39.029572
33900000000 -2.4133639 -30.38162 -11.392726 -128.45242 -11.388959 -128.55293 -1.6077993 -39.623314
33910000000 -2.4131153 -31.095987 -11.392121 -129.22208 -11.389361 -129.2403 -1.6063489 -40.225868
33920000000 -2.4173889 -31.738005 -11.38687 -129.8053 -11.384707 -129.79048 -1.6065819 -40.810371
33930000000 -2.4191129 -32.470345 -11.38473 -130.46718 -11.388042 -130.50609 -1.6067494 -41.368721
33940000000 -2.4281697 -33.181225 -11.386302 -131.19887 -11.385026 -131.23294 -1.6071711 -41.951374
33950000000 -2.4328685 -33.856239 -11.374541 -131.78799 -11.377454 -131.7981 -1.602959 -42.487961
33960000000 -2.4386904 -34.570824 -11.376417 -132.41254 -11.370958 -132.44402 -1.5998659 -43.045162
33970000000 -2.4429858 -35.27438 -11.367248 -133.06157 -11.368276 -133.11638 -1.5972019 -43.553516
33980000000 -2.452523 -35.991749 -11.368857 -133.67528 -11.372954 -133.74324 -1.6042082 -44.126625
33990000000 -2.453681 -36.708519 -11.365249 -134.38785 -11.357464 -134.37724 -1.599087 -44.66851
34000000000 -2.4610338 -37.405396 -11.364079 -134.98882 -11.361506 -134.98378 -1.5998992 -45.213741
34010000000 -2.4603775 -38.142593 -11.358728 -135.70761 -11.36136 -135.73453 -1.6093161 -45.776829
34020000000 -2.468637 -38.832283 -11.356762 -136.29456 -11.356031 -136.35707 -1.605731 -46.330685
34030000000 -2.4737992 -39.525337 -11.356298 -137.00558 -11.344713 -137.02473 -1.6014384 -46.883904
34040000000 -2.4765253 -40.250793 -11.341179 -137.6669 -11.34084 -137.69276 -1.6038165 -47.434532
34050000000 -2.4813757 -40.955402 -11.336955 -138.30353 -11.34707 -138.33308 -1.6038828 -47.981674
34060000000 -2.4867063 -41.611996 -11.335538 -138.95131 -11.334278 -138.98874 -1.6012348 -48.585968
34070000000 -2.4930823 -42.315807 -11.332302 -139.55598 -11.340399 -139.64999 -1.6043386 -49.124332
34080000000 -2.4932265 -42.973167 -11.329712 -140.23598 -11.336898 -140.29753 -1.6066861 -49.710327
34090000000 -2.4906065 -43.706123 -11.321671 -140.88927 -11.331674 -140.95418 -1.6046863 -50.245224
34100000000 -2.4971533 -44.331734 -11.320049 -141.60213 -11.323209 -141.57191 -1.6042255 -50.815018
34110000000 -2.5157681 -45.057892 -11.326362 -142.17398 -11.323811 -142.27139 -1.6081681 -51.353664
34120000000 -2.5215199 -45.743698 -11.316939 -142.83978 -11.318008 -142.96794 -1.6072835 -51.880939
34130000000 -2.5311627 -46.434319 -11.311575 -143.5558 -11.3098 -143.62364 -1.606208 -52.451427
34140000000 -2.5385349 -47.138016 -11.316866 -144.25755 -11.308534 -144.24034 -1.6169907 -53.024075
34150000000 -2.5507915 -47.823822 -11.298497 -144.84256 -11.299507 -144.91074 -1.6141033 -53.544785
34160000000 -2.5561216 -48.490795 -11.294009 -145.5197 -11.295167 -145.55646 -1.6146162 -54.155624
34170000000 -2.5653751 -49.266487 -11.290383 -146.19777 -11.291059 -146.25221 -1.6174212 -54.737873
34180000000 -2.5770211 -49.967663 -11.284422 -146.83801 -11.281414 -146.87099 -1.6121327 -55.278984
34190000000 -2.5829477 -50.726719 -11.271772 -147.47667 -11.28471 -147.5874 -1.61146 -55.804024
34200000000 -2.5871363 -51.487488 -11.27189 -148.22823 -11.273067 -148.28745 -1.6122464 -56.399849
34210000000 -2.6039128 -52.22897 -11.271843 -148.86095 -11.273404 -148.88245 -1.6099423 -56.942062
34220000000 -2.6094067 -52.923672 -11.262865 -149.52455 -11.265996 -149.60207 -1.6062739 -57.530487
34230000000 -2.6115863 -53.679478 -11.258653 -150.25652 -11.259833 -150.27924 -1.6098512 -58.057224
34240000000 -2.6191089 -54.403584 -11.250343 -150.90134 -11.260685 -150.93066 -1.6087166 -58.607929
34250000000 -2.6284561 -55.133823 -11.257888 -151.54617 -11.261245 -151.62164 -1.6133076 -59.186123
34260000000 -2.6304214 -55.855331 -11.249553 -152.25798 -11.248004 -152.29631 -1.610754 -59.698185
34270000000 -2.6372924 -56.549347 -11.238371 -152.88797 -11.240514 -152.91457 -1.6182086 -60.264454
34280000000 -2.6408799 -57.305069 -11.239151 -153.532 -11.235252 -153.56375 -1.6179944 -60.740444
34290000000 -2.657649 -58.066662 -11.237547 -154.25728 -11.240488 -154.28046 -1.6224223 -61.338062
34300000000 -2.6715639 -58.734798 -11.250019 -154.89394 -11.243226 -154.95911 -1.6256388 -61.910801
34310000000 -2.6742098 -59.489246 -11.227657 -155.62778 -11.229587 -155.63536 -1.619097 -62.447231
34320000000 -2.6817734 -60.22802 -11.221152 -156.25174 -11.228316 -156.26524 -1.6261029 -62.975792
34330000000 -2.6911573 -60.929249 -11.222323 -156.88348 -11.224422 -156.95338 -1.6195596 -63.553223
34340000000 -2.6954966 -61.669819 -11.210676 -157.5675 -11.216485 -157.62453 -1.6227669 -64.133087
34350000000 -2.7051585 -62.35268 -11.205386 -158.27232 -11.207333 -158.30533 -1.6132096 -64.667511
34360000000 -2.715656 -63.054245 -11.211827 -158.92216 -11.205992 -158.9695 -1.6246009 -65.252502
34370000000 -2.7273653 -63.802067 -11.201691 -159.65715 -11.195883 -159.69533 -1.6127976 -65.824913
34380000000 -2.736203 -64.518837 -11.191948 -160.29051 -11.199525 -160.31575 -1.6213716 -66.361343
34390000000 -2.7455952 -65.26226 -11.195017 -161.00279 -11.194534 -161.05515 -1.6189564 -66.914055
34400000000 -2.7618594 -65.979836 -11.187218 -161.65492 -11.185777 -161.73198 -1.6193619 -67.450256
34410000000 -2.777355 -66.736267 -11.190649 -162.34714 -11.188347 -162.4261 -1.6191421 -67.984558
34420000000 -2.7853246 -67.48143 -11.174493 -163.0929 -11.175009 -163.09444 -1.6138308 -68.543152
34430000000 -2.8042901 -68.252151 -11.176566 -163.64256 -11.179111 -163.74684 -1.6134164 -69.022728
34440000000 -2.8143423 -69.042084 -11.168119 -164.41882 -11.165329 -164.43837 -1.601949 -69.579109
34450000000 -2.8208215 -69.788193 -11.158113 -165.04088 -11.167321 -165.09547 -1.6083394 -70.078972
34460000000 -2.8296907 -70.584236 -11.166893 -165.75859 -11.165332 -165.80617 -1.6177164 -70.599823
34470000000 -2.8371913 -71.32457 -11.148665 -166.40158 -11.153454 -166.44572 -1.6102747 -71.132462
34480000000 -2.8361781 -72.099098 -11.148088 -167.12587 -11.152338 -167.14091 -1.6182349 -71.65554
34490000000 -2.8453963 -72.83905 -11.14271 -167.82462 -11.142372 -167.82742 -1.6228729 -72.179916
34500000000 -2.8548343 -73.549103 -11.13629 -168.48543 -11.133232 -168.47911 -1.6187644 -72.738518
34510000000 -2.8632548 -74.321014 -11.138434 -169.14862 -11.133115 -169.15637 -1.6253072 -73.235413
34520000000 -2.8711851 -75.042679 -11.121214 -169.8855 -11.136187 -169.89575 -1.6283755 -73.779434
34530000000 -2.8795917 -75.762863 -11.121019 -170.54164 -11.115877 -170.57265 -1.6225569 -74.353836
34540000000 -2.8923404 -76.463585 -11.120398 -171.20869 -11.109401 -171.25366 -1.623336 -74.921593
34550000000 -2.9022543 -77.214607 -11.108619 -171.89209 -11.103572 -171.96194 -1.6267692 -75.437195
34560000000 -2.9151063 -77.907379 -11.108932 -172.5946 -11.109373 -172.64644 -1.6308104 -76.01149
34570000000 -2.9251115 -78.639618 -11.099508 -173.28323 -11.096065 -173.30586 -1.6264526 -76.541382
34580000000 -2.9330885 -79.310242 -11.093482 -173.90233 -11.091393 -173.97684 -1.636543 -77.042671
34590000000 -2.951324 -80.037491 -11.075806 -174.6404 -11.082379 -174.69115 -1.626086 -77.599831
34600000000 -2.9674733 -80.79834 -11.074118 -175.33075 -11.082273 -175.38348 -1.6310319 -78.133736
34610000000 -2.979521 -81.518997 -11.069427 -176.00105 -11.068859 -176.06912 -1.6340108 -78.634392
34620000000 -2.9920731 -82.188217 -11.06464 -176.74847 -11.068644 -176.75679 -1.640923 -79.241547
34630000000 -3.0139506 -82.888359 -11.058 -177.35152 -11.053276 -177.46674 -1.6449615 -79.774635
34640000000 -3.0301127 -83.647324 -11.047821 -178.16756 -11.045045 -178.22234 -1.6459953 -80.380089
34650000000 -3.0510476 -84.41684 -11.037992 -178.85519 -11.040003 -178.85207 -1.6451823 -80.889427
34660000000 -3.0691829 -85.150841 -11.034288 -179.56537 -11.031834 -179.62624 -1.6446542 -81.52594
34670000000 -3.0934579 -85.953232 -11.028585 179.78201 -11.029546 179.7029 -1.6457573 -81.992638
34680000000 -3.1038344 -86.709641 -11.013604 179.07404 -11.016682 179.04169 -1.6443899 -82.572205
34690000000 -3.1245582 -87.459122 -11.011756 178.37167 -11.011652 178.3076 -1.6464585 -83.159859
34700000000 -3.135262 -88.286911 -11.001288 177.67238 -11.00307 177.61438 -1.6443876 -83.7015
34710000000 -3.1550002 -89.054329 -11.005165 176.98087 -10.999928 176.95532 -1.6445777 -84.2173
34720000000 -3.1702671 -89.850044 -10.999373 176.17212 -10.996346 176.15784 -1.6422211 -84.825111
34730000000 -3.17888 -90.570549 -10.983904 175.51404 -10.992344 175.491 -1.6394256 -85.330307
34740000000 -3.1942241 -91.332397 -10.983037 174.81718 -10.977596 174.80089 -1.6354728 -85.850784
34750000000 -3.2141013 -92.098724 -10.975525 174.11273 -10.977342 174.00967 -1.6360903 -86.369576
34760000000 -3.2282181 -92.878639 -10.963594 173.38454 -10.96465 173.31541 -1.6347417 -86.898445
34770000000 -3.2472308 -93.603279 -10.962928 172.69975 -10.962048 172.63252 -1.6436286 -87.401604
34780000000 -3.271909 -94.396523 -10.949372 171.96849 -10.946844 171.97011 -1.6313692 -87.899597
34790000000 -3.2937667 -95.186577 -10.948347 171.24681 -10.947266 171.25421 -1.6402282 -88.378845
34800000000 -3.3135755 -95.935196 -10.939244 170.62643 -10.944746 170.5453 -1.6438645 -88.901917
34810000000 -3.3440769 -96.763443 -10.936564 169.87108 -10.932979 169.81596 -1.6378405 -89.395821
34820000000 -3.3513851 -97.585022 -10.923244 169.15173 -10.923074 169.12334 -1.6457895 -89.89959
34830000000 -3.3694401 -98.375175 -10.924023 168.43741 -10.91547 168.41983 -1.6577485 -90.373238
34840000000 -3.3853514 -99.19088 -10.90256 167.68492 -10.899533 167.64087 -1.6539152 -90.925941
34850000000 -3.3977396 -99.985123 -10.904486 167.00821 -10.903272 166.96849 -1.6624964 -91.380013
34860000000 -3.4130924 -100.6676 -10.894387 166.25813 -10.891536 166.25462 -1.6688212 -92.041756
34870000000 -3.4340088 -101.45845 -10.883645 165.51611 -10.89097 165.43536 -1.6725619 -92.588432
34880000000 -3.452359 -102.18495 -10.874955 164.79765 -10.877546 164.78497 -1.6772527 -93.101761
34890000000 -3.4662464 -102.90354 -10.858372 164.12178 -10.855634 164.01266 -1.675135 -93.705482
34900000000 -3.493181 -103.6052 -10.856873 163.36214 -10.854231 163.28192 -1.6786553 -94.290817
34910000000 -3.5261581 -104.3811 -10.856032 162.59612 -10.852534 162.52928 -1.6831683 -94.867958
34920000000 -3.5529661 -105.16761 -10.843714 161.84853 -10.842378 161.79005 -1.6772766 -95.416237
34930000000 -3.578634 -105.90403 -10.836755 161.19841 -10.832158 161.12102 -1.6801502 -95.915665
34940000000 -3.6174035 -106.74012 -10.832153 160.40088 -10.824103 160.35774 -1.6735642 -96.506874
34950000000 -3.6489735 -107.59056 -10.812468 159.61467 -10.815432 159.62119 -1.6688828 -97.062843
34960000000 -3.6751764 -108.43526 -10.817064 158.92702 -10.810217 158.8589 -1.6699306 -97.596313
34970000000 -3.6958673 -109.27718 -10.799179 158.20677 -10.801784 158.19847 -1.6660064 -98.036865
34980000000 -3.7188568 -110.16756 -10.794875 157.42259 -10.797874 157.39731 -1.6660843 -98.57975
34990000000 -3.7400048 -110.96783 -10.793121 156.70955 -10.793921 156.65033 -1.6710505 -99.042664
35000000000 -3.759177 -111.80943 -10.780159 156.00117 -10.778402 155.89711 -1.6660129 -99.553207
35010000000 -3.779943 -112.58894 -10.772775 155.2403 -10.769849 155.20757 -1.6717318 -100.02336
35020000000 -3.8041182 -113.41575 -10.764932 154.52885 -10.769364 154.41029 -1.682211 -100.52446
35030000000 -3.8235531 -114.18684 -10.756051 153.71918 -10.75319 153.68874 -1.6819953 -101.04942
35040000000 -3.855335 -114.92358 -10.748388 153.04561 -10.746069 152.99886 -1.6824849 -101.55176
35050000000 -3.8795438 -115.69949 -10.737023 152.30566 -10.741912 152.17616 -1.6881274 -102.12232
35060000000 -3.9210503 -116.49433 -10.735458 151.50949 -10.739885 151.47858 -1.691532 -102.61974
35070000000 -3.9476838 -117.30418 -10.71137 150.77161 -10.715796 150.71153 -1.6887144 -103.16748
35080000000 -3.9895868 -118.12077 -10.706598 150.00908 -10.710911 149.96863 -1.6844954 -103.65242
35090000000 -4.0209484 -118.9371 -10.70067 149.17966 -10.70496 149.1633 -1.6947566 -104.21456
35100000000 -4.0552592 -119.71535 -10.693629 148.55908 -10.704314 148.48471 -1.6964866 -104.69684
35110000000 -4.0942864 -120.52445 -10.698722 147.70822 -10.69323 147.70209 -1.6988539 -105.27497
35120000000 -4.1250396 -121.39928 -10.682958 146.97633 -10.683702 146.98 -1.6970693 -105.70573
35130000000 -4.1624284 -122.26693 -10.671499 146.22205 -10.671644 146.13228 -1.6951081 -106.2253
35140000000 -4.1946778 -123.07433 -10.657266 145.45518 -10.662725 145.41484 -1.6935984 -106.72784
35150000000 -4.2288423 -123.99878 -10.658279 144.65292 -10.647079 144.66678 -1.695061 -107.21497
35160000000 -4.26478 -124.81998 -10.646322 143.88641 -10.639743 143.88965 -1.6989113 -107.72419
35170000000 -4.2983675 -125.68552 -10.629329 143.14621 -10.630707 143.08664 -1.6969879 -108.19978
35180000000 -4.333128 -126.52247 -10.62193 142.42905 -10.627264 142.3994 -1.7049589 -108.65596
35190000000 -4.3708811 -127.33661 -10.623466 141.65685 -10.621751 141.52846 -1.711562 -109.2267
35200000000 -4.412147 -128.19316 -10.612313 140.83398 -10.606522 140.79144 -1.7073395 -109.72981
35210000000 -4.4423442 -129.01801 -10.603686 140.10991 -10.606717 140.09209 -1.71438 -110.16597
35220000000 -4.4808722 -129.83179 -10.58471 139.27548 -10.583108 139.25294 -1.7126497 -110.72469
35230000000 -4.5217881 -130.62759 -10.581297 138.50761 -10.575769 138.41914 -1.7183359 -111.258
35240000000 -4.56917 -131.45267 -10.573763 137.73747 -10.564862 137.66646 -1.7148998 -111.72215
35250000000 -4.6129551 -132.26799 -10.561876 136.97096 -10.564932 136.90283 -1.7268189 -112.21986
35260000000 -4.6560102 -133.15514 -10.553333 136.23123 -10.549012 136.13457 -1.7291518 -112.69357
35270000000 -4.7178855 -134.02235 -10.531795 135.32948 -10.539398 135.29984 -1.7244267 -113.21152
35280000000 -4.7632437 -134.92789 -10.523188 134.53304 -10.52387 134.53409 -1.7339041 -113.72786
35290000000 -4.8213606 -135.82126 -10.52389 133.75876 -10.519489 133.76866 -1.7445416 -114.23071
35300000000 -4.8790412 -136.76888 -10.515008 132.95924 -10.506079 132.94508 -1.7465656 -114.70356
35310000000 -4.9234371 -137.68661 -10.504007 132.19763 -10.508621 132.17044 -1.758392 -115.22601
35320000000 -4.9766631 -138.62447 -10.487963 131.35085 -10.488573 131.37973 -1.755206 -115.76657
35330000000 -5.0206871 -139.5766 -10.484743 130.53325 -10.484335 130.49535 -1.7646028 -116.35148
35340000000 -5.0728874 -140.54073 -10.469441 129.71893 -10.472217 129.63631 -1.7605075 -116.86306
35350000000 -5.1145592 -141.46004 -10.47545 128.85294 -10.470583 128.8391 -1.7645472 -117.42418
35360000000 -5.1542687 -142.34474 -10.463452 128.00082 -10.464417 127.99855 -1.7675344 -117.9949
35370000000 -5.1963935 -143.2317 -10.463048 127.25399 -10.453374 127.21072 -1.7649114 -118.47684
35380000000 -5.2420764 -144.09094 -10.452766 126.45437 -10.455977 126.47144 -1.7670214 -119.01825
35390000000 -5.2897305 -144.95662 -10.44489 125.68324 -10.444777 125.6399 -1.7590564 -119.51588
35400000000 -5.3393559 -145.76207 -10.437004 124.79455 -10.443277 124.76786 -1.7615007 -120.02192
35410000000 -5.3963556 -146.61259 -10.43451 123.98299 -10.43727 123.96114 -1.7526684 -120.5035
35420000000 -5.4607654 -147.45717 -10.432903 123.13692 -10.434256 123.14894 -1.7500361 -120.96708
35430000000 -5.5200429 -148.33127 -10.423717 122.34685 -10.422254 122.32604 -1.7496012 -121.44522
35440000000 -5.5843244 -149.16843 -10.418635 121.54127 -10.422203 121.51095 -1.7505378 -121.89448
35450000000 -5.6600628 -150.04294 -10.415279 120.67737 -10.409165 120.66951 -1.7495145 -122.3392
35460000000 -5.7308106 -150.89172 -10.402739 119.88501 -10.397738 119.80306 -1.7488329 -122.78544
35470000000 -5.796361 -151.80522 -10.402288 119.0407 -10.392585 119.0139 -1.7520987 -123.2659
35480000000 -5.8787189 -152.7144 -10.399837 118.18092 -10.39084 118.16365 -1.7555974 -123.72505
35490000000 -5.9536977 -153.62981 -10.387172 117.33866 -10.385509 117.36097 -1.756747 -124.14055
35500000000 -6.0355415 -154.57866 -10.37722 116.59824 -10.371774 116.52122 -1.7595583 -124.58595
35510000000 -6.1108837 -155.50854 -10.36628 115.72111 -10.36106 115.68804 -1.7629945 -125.0264
35520000000 -6.1890235 -156.46236 -10.372243 114.88825 -10.37149 114.83612 -1.7750483 -125.46891
35530000000 -6.2679191 -157.37871 -10.355769 113.97782 -10.35661 113.93797 -1.7710248 -125.93307
35540000000 -6.3489013 -158.32773 -10.350107 113.16718 -10.355477 113.11591 -1.7760066 -126.39456
35550000000 -6.43646 -159.31259 -10.359697 112.34203 -10.356183 112.35298 -1.7928139 -126.82024
35560000000 -6.521781 -160.23898 -10.342361 111.43353 -10.334302 111.42583 -1.7907887 -127.2878
35570000000 -6.6113863 -161.16586 -10.327596 110.61059 -10.337202 110.49628 -1.7937979 -127.80481
35580000000 -6.7127261 -162.15367 -10.328138 109.65918 -10.330242 109.63103 -1.8002416 -128.32339
35590000000 -6.7992229 -163.12123 -10.325253 108.84354 -10.323069 108.78239 -1.8090218 -128.7666
35600000000 -6.9008698 -164.12698 -10.31929 107.92756 -10.314476 107.91289 -1.8137342 -129.28642
35610000000 -6.9973211 -165.12541 -10.306199 107.09971 -10.315603 106.98676 -1.8176813 -129.82822
35620000000 -7.0913086 -166.13443 -10.300888 106.19872 -10.30903 106.14121 -1.8220196 -130.3215
35630000000 -7.1933479 -167.21072 -10.304725 105.231 -10.30522 105.22009 -1.8252609 -130.85068
35640000000 -7.2953939 -168.20039 -10.310357 104.39397 -10.304818 104.29786 -1.8255533 -131.35474
35650000000 -7.3875165 -169.31662 -10.306686 103.47414 -10.304461 103.4199 -1.8261942 -131.89731
35660000000 -7.4874744 -170.2804 -10.318414 102.52243 -10.306231 102.52795 -1.8264283 -132.38261
35670000000 -7.5954013 -171.3212 -10.306736 101.66574 -10.309116 101.70332 -1.8241162 -132.82901
35680000000 -7.6857986 -172.29225 -10.301354 100.80143 -10.300787 100.72865 -1.8203363 -133.34906
35690000000 -7.7957053 -173.24533 -10.309274 99.900978 -10.314747 99.888069 -1.8210013 -133.79108
35700000000 -7.9038172 -174.1606 -10.30027 99.007172 -10.300651 98.956741 -1.8072335 -134.25848
35710000000 -8.0128603 -175.14996 -10.317069 98.09626 -10.313199 98.077896 -1.8211643 -134.67494
35720000000 -8.1356592 -175.95993 -10.322309 97.222786 -10.320758 97.188568 -1.8145871 -135.1593
35730000000 -8.2606697 -176.87949 -10.319496 96.308601 -10.319853 96.231079 -1.8194418 -135.59128
35740000000 -8.3921394 -177.75533 -10.321606 95.371811 -10.325132 95.306198 -1.8199317 -136.09973
35750000000 -8.5316925 -178.70367 -10.324304 94.50882 -10.317631 94.486519 -1.8258811 -136.49251
35760000000 -8.67414 -179.67931 -10.33237 93.612984 -10.32568 93.571701 -1.826707 -136.94621
35770000000 -8.8255634 179.39619 -10.330761 92.707092 -10.328525 92.615189 -1.8241398 -137.41786
35780000000 -8.9706011 178.39067 -10.342749 91.805481 -10.341249 91.719833 -1.8304651 -137.88637
35790000000 -9.1254845 177.45189 -10.335095 90.872643 -10.342869 90.796425 -1.8306735 -138.3558
35800000000 -9.2891502 176.48413 -10.343716 89.895493 -10.345108 89.855011 -1.8237621 -138.79526
35810000000 -9.4451103 175.4812 -10.354181 88.95314 -10.359006 88.976738 -1.8290576 -139.229
35820000000 -9.6114025 174.50955 -10.364445 88.045815 -10.363412 88.012917 -1.8324202 -139.72896
35830000000 -9.7761574 173.62595 -10.367579 87.098122 -10.375903 87.12442 -1.8290954 -140.1447
35840000000 -9.9502659 172.75897 -10.378736 86.225632 -10.375427 86.198845 -1.8301755 -140.54364
35850000000 -10.145856 171.78143 -10.389357 85.209244 -10.3863 85.220589 -1.8230679 -141.02702
35860000000 -10.337272 170.89273 -10.384846 84.315086 -10.395283 84.381577 -1.8239448 -141.39653
35870000000 -10.54249 169.95982 -10.40067 83.459663 -10.40161 83.391983 -1.8352242 -141.83911
35880000000 -10.759789 169.0795 -10.406483 82.47551 -10.409569 82.472626 -1.8283492 -142.2982
35890000000 -10.988218 168.17737 -10.414486 81.611763 -10.412926 81.571014 -1.8372537 -142.70297
35900000000 -11.215968 167.14752 -10.427832 80.620796 -10.421041 80.672417 -1.8327399 -143.13054
35910000000 -11.445562 166.21611 -10.44002 79.634171 -10.437397 79.683372 -1.8377757 -143.58615
35920000000 -11.706475 165.15652 -10.446554 78.699837 -10.444384 78.706589 -1.83978 -144.04779
35930000000 -11.946831 164.08478 -10.466258 77.773491 -10.464076 77.688454 -1.8465443 -144.47743
35940000000 -12.218096 163.02011 -10.480858 76.805443 -10.476177 76.785751 -1.8421589 -144.87776
35950000000 -12.481995 162.06552 -10.486576 75.878273 -10.487556 75.794807 -1.8442215 -145.32594
35960000000 -12.742211 161.04198 -10.514776 74.924652 -10.503233 74.884445 -1.8506715 -145.72455
35970000000 -13.0239 160.09456 -10.525763 73.994324 -10.523331 73.879333 -1.8471546 -146.14911
35980000000 -13.31437 159.17157 -10.530837 72.989662 -10.534402 72.957848 -1.8468465 -146.59146
35990000000 -13.606399 158.32147 -10.545924 72.081917 -10.553348 71.975883 -1.8452578 -147.07185
36000000000 -13.926784 157.41745 -10.562739 71.054634 -10.570598 70.991264 -1.8487403 -147.50995
36010000000 -14.265389 156.61914 -10.571834 70.073387 -10.579103 70.056358 -1.8484737 -147.92079
36020000000 -14.605053 155.84079 -10.605832 69.142159 -10.6106 69.078224 -1.8578091 -148.442
36030000000 -14.974676 154.9669 -10.617461 68.15847 -10.61088 68.143814 -1.8600224 -148.84338
36040000000 -15.365516 154.31528 -10.635631 67.201378 -10.639155 67.104195 -1.8636782 -149.38661
36050000000 -15.783878 153.576 -10.656876 66.218781 -10.667353 66.179924 -1.8665967 -149.8291
36060000000 -16.225367 152.90565 -10.687922 65.231682 -10.690211 65.259705 -1.8669134 -150.32214
36070000000 -16.680681 152.46771 -10.702826 64.320068 -10.707384 64.27037 -1.8583363 -150.86508
36080000000 -17.190893 151.80167 -10.728463 63.319534 -10.73875 63.264553 -1.8530499 -151.3459
36090000000 -17.705521 151.42432 -10.774953 62.364517 -10.765397 62.305096 -1.8526695 -151.8526
36100000000 -18.255009 150.75482 -10.799691 61.347721 -10.797688 61.321228 -1.8508321 -152.33022
36110000000 -18.862871 150.56671 -10.813967 60.352654 -10.816003 60.359043 -1.8313577 -152.80928
36120000000 -19.495289 150.18536 -10.862817 59.463375 -10.851711 59.452454 -1.8330238 -153.17789
36130000000 -20.243855 150.17859 -10.876863 58.475491 -10.881525 58.437794 -1.8194733 -153.5741
36140000000 -21.000328 150.16614 -10.905081 57.573681 -10.907659 57.497292 -1.8052292 -153.95445
36150000000 -21.866983 150.30768 -10.943467 56.540894 -10.942657 56.564747 -1.8039075 -154.38945
36160000000 -22.72271 150.8763 -10.973988 55.589867 -10.972064 55.607265 -1.8025403 -154.78709
36170000000 -23.739769 152.02852 -11.00125 54.71526 -10.999269 54.66468 -1.7933691 -155.16931
36180000000 -24.80415 153.69078 -11.046231 53.821777 -11.041454 53.701153 -1.799683 -155.54993
36190000000 -26.034889 156.22025 -11.085732 52.777802 -11.076959 52.737911 -1.7973795 -155.98996
36200000000 -27.350754 160.69183 -11.111137 51.8479 -11.112809 51.829018 -1.7894303 -156.33568
36210000000 -28.787407 167.19019 -11.157384 50.892139 -11.152271 50.865128 -1.788545 -156.77654
36220000000 -30.355722 177.50549 -11.186357 49.916668 -11.194175 49.929306 -1.7910615 -157.19849
36230000000 -31.78965 -167.87248 -11.224202 49.020908 -11.224216 48.980801 -1.7871412 -157.59875
36240000000 -32.407352 -148.94606 -11.259637 48.075405 -11.264553 48.034931 -1.7821048 -157.97563
36250000000 -31.839268 -128.42651 -11.290064 47.119049 -11.282988 47.084873 -1.7679855 -158.38197
36260000000 -30.72142 -112.26246 -11.339216 46.235126 -11.334903 46.168728 -1.7748067 -158.75272
36270000000 -29.118057 -101.85146 -11.377965 45.292969 -11.376871 45.197765 -1.7764547 -159.18648
36280000000 -27.552431 -93.911194 -11.422985 44.323166 -11.417211 44.270729 -1.7730082 -159.61662
36290000000 -26.231852 -88.979485 -11.469673 43.418583 -11.47039 43.346512 -1.7789392 -159.97479
36300000000 -24.932093 -85.905334 -11.497274 42.479984 -11.49842 42.403854 -1.7683612 -160.43748
36310000000 -23.742756 -83.974243 -11.5536 41.56089 -11.549545 41.484997 -1.7753276 -160.87337
36320000000 -22.799162 -82.783508 -11.588259 40.562 -11.583886 40.535969 -1.7731012 -161.33975
36330000000 -21.804937 -81.90361 -11.649556 39.583645 -11.63785 39.591465 -1.7791194 -161.81857
36340000000 -21.016518 -81.657143 -11.6874 38.730625 -11.685946 38.761616 -1.7780383 -162.31517
36350000000 -20.201895 -81.685387 -11.736104 37.82362 -11.740745 37.821926 -1.7723308 -162.79803
36360000000 -19.452898 -81.605385 -11.788614 36.865971 -11.784207 36.87508 -1.7616483 -163.29134
36370000000 -18.788336 -81.584312 -11.84362 35.975147 -11.838185 35.981575 -1.7664441 -163.78743
36380000000 -18.149944 -81.979637 -11.890427 35.105721 -11.904676 35.076561 -1.7601259 -164.25752
36390000000 -17.548901 -82.043953 -11.934339 34.111553 -11.940632 34.178272 -1.7419761 -164.7308
36400000000 -17.025005 -82.405098 -12.005167 33.287823 -12.004294 33.261742 -1.7338979 -165.18558
36410000000 -16.520565 -82.579659 -12.051064 32.412102 -12.05833 32.387459 -1.7214714 -165.60175
36420000000 -16.071472 -83.10144 -12.111813 31.53343 -12.116648 31.473806 -1.7085129 -166.11008
36430000000 -15.644114 -83.401001 -12.176661 30.682337 -12.158884 30.644819 -1.7042092 -166.46568
36440000000 -15.261438 -84.114029 -12.21689 29.808487 -12.219999 29.758728 -1.6930536 -166.87135
36450000000 -14.886806 -84.745949 -12.293027 28.93347 -12.280602 28.885317 -1.6887193 -167.29086
36460000000 -14.544153 -85.625046 -12.34129 28.065781 -12.330787 28.05356 -1.6848403 -167.68806
36470000000 -14.221164 -86.445457 -12.408385 27.209703 -12.402931 27.173201 -1.6862645 -168.13066
36480000000 -13.896641 -87.409271 -12.462889 26.40873 -12.448703 26.35202 -1.6764007 -168.51758
36490000000 -13.576711 -88.305664 -12.51872 25.595118 -12.513927 25.460594 -1.6753289 -168.9705
36500000000 -13.272147 -89.324348 -12.58499 24.814566 -12.577929 24.643356 -1.6701949 -169.40968
36510000000 -12.965638 -90.251862 -12.637826 23.883366 -12.632792 23.810495 -1.6668001 -169.88329
36520000000 -12.664072 -91.22963 -12.701538 23.060579 -12.692203 23.010597 -1.65886 -170.36139
36530000000 -12.37991 -92.1726 -12.764009 22.240009 -12.762028 22.159906 -1.6532913 -170.79504
36540000000 -12.110357 -93.075729 -12.822341 21.468361 -12.822288 21.430346 -1.6514046 -171.19727
36550000000 -11.846719 -93.862282 -12.888421 20.678883 -12.892583 20.600296 -1.6415225 -171.66148
36560000000 -11.598202 -94.754639 -12.962631 19.866898 -12.958599 19.763832 -1.646854 -172.14401
36570000000 -11.357066 -95.630585 -13.019109 19.124943 -13.020828 19.010374 -1.6255974 -172.56789
36580000000 -11.122331 -96.550102 -13.082938 18.322914 -13.088614 18.179176 -1.6208103 -172.99622
36590000000 -10.908251 -97.34993 -13.15966 17.452742 -13.161953 17.457962 -1.6309162 -173.45251
36600000000 -10.699771 -98.254532 -13.222601 16.734653 -13.219215 16.712606 -1.6207132 -173.85304
36610000000 -10.493564 -99.109573 -13.281846 16.009708 -13.290895 15.928215 -1.6196607 -174.28215
36620000000 -10.304296 -100.08746 -13.338214 15.252684 -13.348558 15.16602 -1.6187564 -174.7119
36630000000 -10.114587 -100.94344 -13.423073 14.495526 -13.431277 14.492604 -1.6227897 -175.15387
36640000000 -9.9440594 -101.83685 -13.482066 13.748153 -13.485795 13.667962 -1.6127954 -175.6597
36650000000 -9.7728338 -102.78567 -13.557563 13.011448 -13.551792 13.021106 -1.6207708 -176.12685
36660000000 -9.6018181 -103.70067 -13.613955 12.372426 -13.617508 12.287353 -1.6154801 -176.59421
36670000000 -9.4413033 -104.79281 -13.677061 11.612045 -13.688416 11.561459 -1.6015731 -177.06628
36680000000 -9.2854843 -105.74269 -13.757067 10.953645 -13.750396 10.867341 -1.6076123 -177.60863
36690000000 -9.1344805 -106.70963 -13.820249 10.272483 -13.82305 10.229786 -1.5939766 -178.01674
36700000000 -8.9793921 -107.61675 -13.885485 9.5686474 -13.880634 9.523448 -1.5894746 -178.45737
36710000000 -8.8349237 -108.70387 -13.971526 8.8534851 -13.970042 8.8051147 -1.5875871 -178.98029
36720000000 -8.6788273 -109.61304 -14.041265 8.2160177 -14.029016 8.1925192 -1.575184 -179.4081
36730000000 -8.5401907 -110.54604 -14.106481 7.5775666 -14.092411 7.5196962 -1.5782142 -179.90504
36740000000 -8.3950701 -111.43542 -14.185281 6.9052234 -14.165213 6.8505974 -1.5758942 179.70143
36750000000 -8.2701092 -112.34961 -14.249369 6.3045316 -14.235262 6.2699752 -1.5824313 179.2179
36760000000 -8.1415405 -113.26115 -14.312679 5.5985818 -14.30474 5.6004763 -1.5740007 178.69412
36770000000 -8.0331717 -114.12259 -14.38185 5.0472984 -14.374775 5.0264006 -1.5797085 178.24692
36780000000 -7.9194326 -115.02495 -14.451385 4.3705735 -14.442313 4.4201541 -1.5741514 177.74542
36790000000 -7.810801 -115.93143 -14.512602 3.8526416 -14.500604 3.6805255 -1.5713968 177.22253
36800000000 -7.7097149 -116.87678 -14.590799 3.1984341 -14.570413 3.1568027 -1.5632967 176.73911
36810000000 -7.6088653 -117.89877 -14.65025 2.5509288 -14.649741 2.4940968 -1.5548346 176.1936
36820000000 -7.5007024 -118.89404 -14.725281 2.0363631 -14.731157 1.9633315 -1.5572863 175.71587
36830000000 -7.4067087 -119.88027 -14.8124 1.4798222 -14.796082 1.4425988 -1.5522078 175.27289
36840000000 -7.2979913 -120.90651 -14.868901 0.84477955 -14.869046 0.84295136 -1.5310223 174.80067
36850000000 -7.1843019 -121.86729 -14.930162 0.33147147 -14.929924 0.34517339 -1.5295992 174.34058
36860000000 -7.082509 -122.81194 -14.997182 -0.16639395 -14.996263 -0.2734921 -1.5190634 173.85641
36870000000 -6.9738564 -123.70007 -15.06163 -0.68349683 -15.06489 -0.67066079 -1.5194831 173.54401
36880000000 -6.8664165 -124.56238 -15.139724 -1.1895322 -15.149358 -1.3078309 -1.5171866 173.10222
36890000000 -6.7715311 -125.37209 -15.201728 -1.6487093 -15.204338 -1.6927223 -1.5169889 172.66985
36900000000 -6.6806765 -126.17267 -15.269794 -2.0712707 -15.274021 -2.200222 -1.5187783 172.30067
36910000000 -6.5937209 -126.92695 -15.331708 -2.4983923 -15.330854 -2.6065848 -1.5184516 171.85008
36920000000 -6.5126309 -127.74756 -15.394328 -3.1617146 -15.408704 -3.1066937 -1.5269349 171.32068
36930000000 -6.4441552 -128.58284 -15.456584 -3.5229921 -15.466079 -3.6157293 -1.5300866 170.88783
36940000000 -6.374434 -129.38821 -15.530189 -4.0513768 -15.527068 -4.0722342 -1.5311854 170.39014
36950000000 -6.3113174 -130.24883 -15.592603 -4.5211921 -15.593692 -4.5326982 -1.5385215 169.88193
36960000000 -6.2447295 -131.13927 -15.649533 -4.948884 -15.64274 -4.9389019 -1.5342956 169.36087
36970000000 -6.1740904 -132.056 -15.703396 -5.306818 -15.6941 -5.3773293 -1.5239966 168.87608
36980000000 -6.1125722 -132.96825 -15.765393 -5.6621981 -15.763126 -5.7861509 -1.5206869 168.42432
36990000000 -6.0414977 -133.87907 -15.814857 -6.1399226 -15.807949 -6.2062125 -1.5131791 167.87335
37000000000 -5.9708233 -134.75154 -15.864728 -6.6023126 -15.870914 -6.5823565 -1.5092155 167.43817
37010000000 -5.8940544 -135.61528 -15.930355 -6.9727311 -15.939943 -7.0010414 -1.503582 166.99992
37020000000 -5.825202 -136.43794 -15.980615 -7.3612337 -15.986702 -7.4080353 -1.5003135 166.58508
37030000000 -5.7596235 -137.22505 -16.058006 -7.7064762 -16.044151 -7.7384791 -1.5069321 166.10822
37040000000 -5.6959944 -138.02393 -16.099066 -8.1552629 -16.107538 -8.1564131 -1.5090777 165.67807
37050000000 -5.6308155 -138.78149 -16.172306 -8.3838072 -16.150396 -8.4561968 -1.5077229 165.32297
37060000000 -5.5848312 -139.54953 -16.197065 -8.8454704 -16.200689 -8.8591337 -1.5089216 164.74843
37070000000 -5.5289183 -140.32745 -16.259562 -9.3136883 -16.253412 -9.3008776 -1.5158888 164.30424
37080000000 -5.4865341 -141.10648 -16.285278 -9.5755043 -16.294863 -9.6151714 -1.5095878 163.81509
37090000000 -5.4376421 -141.90356 -16.347578 -9.7198763 -16.343233 -9.9027576 -1.5180928 163.38417
37100000000 -5.4005208 -142.7104 -16.39764 -10.289656 -16.379791 -10.329535 -1.5225731 162.80719
37110000000 -5.3586087 -143.58524 -16.440517 -10.521631 -16.424662 -10.588503 -1.5154907 162.37198
37120000000 -5.3124528 -144.36589 -16.489056 -10.829539 -16.480141 -10.933023 -1.5194284 161.90221
37130000000 -5.2702293 -145.25041 -16.515211 -11.138741 -16.521666 -11.225348 -1.5167825 161.42661
37140000000 -5.2228007 -146.03484 -16.550194 -11.407054 -16.54652 -11.545876 -1.5206293 160.89641
37150000000 -5.1866498 -146.87532 -16.566059 -11.805781 -16.593269 -11.742964 -1.5144376 160.44614
37160000000 -5.1368065 -147.69473 -16.632849 -12.080346 -16.640482 -12.223906 -1.5167716 159.95302
37170000000 -5.10148 -148.52425 -16.681477 -12.25244 -16.668671 -12.389032 -1.5208993 159.54292
37180000000 -5.0492191 -149.29727 -16.707729 -12.567357 -16.701771 -12.729553 -1.5054048 159.08904
37190000000 -5.0156455 -150.12607 -16.713007 -12.783463 -16.732292 -13.005355 -1.5112368 158.6479
37200000000 -4.9679832 -150.92921 -16.780935 -13.103475 -16.775604 -13.300147 -1.5071962 158.22171
37210000000 -4.9336019 -151.7234 -16.801672 -13.480424 -16.793083 -13.465461 -1.5176075 157.76515
37220000000 -4.8828034 -152.49016 -16.826145 -13.621503 -16.827959 -13.624579 -1.5194365 157.36662
37230000000 -4.8458829 -153.24359 -16.850594 -13.945078 -16.844995 -13.967398 -1.5220457 156.92522
37240000000 -4.8012152 -153.97159 -16.87903 -14.098354 -16.878572 -14.244154 -1.5252248 156.51349
37250000000 -4.7678652 -154.68967 -16.891958 -14.395993 -16.884441 -14.468899 -1.5272748 156.10323
37260000000 -4.7243428 -155.39973 -16.91964 -14.720584 -16.912956 -14.73511 -1.5391155 155.61617
37270000000 -4.6988206 -156.07549 -16.920959 -14.959649 -16.925385 -14.990638 -1.5505905 155.15514
37280000000 -4.6632419 -156.78137 -16.958664 -15.122492 -16.939993 -15.206873 -1.5589331 154.69667
37290000000 -4.6382914 -157.43114 -16.969229 -15.499918 -16.943897 -15.507323 -1.5587978 154.20041
37300000000 -4.6148009 -158.14941 -16.972149 -15.612689 -16.967733 -15.724298 -1.5679922 153.70564
37310000000 -4.5919895 -158.84445 -16.984833 -15.916162 -16.991899 -16.067425 -1.5759397 153.19342
37320000000 -4.5734501 -159.58197 -16.99407 -16.117823 -16.984491 -16.168606 -1.576586 152.72079
37330000000 -4.5517254 -160.32639 -17.015734 -16.455402 -17.01449 -16.496695 -1.5891358 152.19789
37340000000 -4.5322695 -161.05284 -17.006376 -16.633272 -17.005922 -16.604002 -1.5820363 151.68599
37350000000 -4.5016856 -161.78036 -17.007595 -16.834789 -17.004519 -16.897385 -1.5871024 151.21631
37360000000 -4.4794564 -162.50958 -17.008944 -17.11731 -16.999186 -17.146759 -1.5856209 150.76433
37370000000 -4.4548154 -163.21225 -17.011564 -17.300911 -17.012903 -17.400501 -1.588764 150.29784
37380000000 -4.4253826 -163.91731 -16.998632 -17.613953 -17.002254 -17.701843 -1.5840695 149.84897
37390000000 -4.4051623 -164.56555 -16.995243 -17.861925 -17.008528 -17.994408 -1.5871842 149.42093
37400000000 -4.3794785 -165.24283 -17.004698 -18.067669 -17.006535 -18.153852 -1.5977517 149.08458
37410000000 -4.3600216 -165.86302 -16.993645 -18.378477 -16.99362 -18.453474 -1.6040165 148.61748
37420000000 -4.3451962 -166.49922 -16.98819 -18.536547 -16.988922 -18.621664 -1.6129819 148.21513
37430000000 -4.3345342 -167.14949 -16.98403 -18.874578 -16.969362 -18.977093 -1.6221691 147.78609
37440000000 -4.3203869 -167.82072 -16.979197 -19.054277 -16.956398 -19.215942 -1.6342759 147.31177
37450000000 -4.3162742 -168.46719 -16.952332 -19.42663 -16.952339 -19.514688 -1.6472687 146.90646
37460000000 -4.3084455 -169.16124 -16.916283 -19.610836 -16.927221 -19.717016 -1.6505123 146.4297
37470000000 -4.3005195 -169.84283 -16.901524 -20.016565 -16.922525 -19.976255 -1.6616747 146.02205
37480000000 -4.2907071 -170.62009 -16.888996 -20.168179 -16.87323 -20.220846 -1.6686977 145.50354
37490000000 -4.2774224 -171.30193 -16.862692 -20.499031 -16.868307 -20.600101 -1.6793339 145.05174
37500000000 -4.2630296 -172.06155 -16.845919 -20.840387 -16.833147 -20.907709 -1.6883676 144.57445
37510000000 -4.2391305 -172.74074 -16.820759 -21.209572 -16.807274 -21.244158 -1.6964192 144.11713
37520000000 -4.2216859 -173.42654 -16.785315 -21.376427 -16.774536 -21.463898 -1.7100493 143.66156
37530000000 -4.1992235 -174.07561 -16.767626 -21.797125 -16.762373 -21.904284 -1.7091886 143.21858
37540000000 -4.1804309 -174.70657 -16.724918 -22.159986 -16.717056 -22.243675 -1.7141018 142.74164
37550000000 -4.1569247 -175.26532 -16.705393 -22.521765 -16.702133 -22.623266 -1.7231933 142.31487
37560000000 -4.1453533 -175.8457 -16.65461 -22.825695 -16.649595 -22.795298 -1.7293681 141.92711
37570000000 -4.1288853 -176.38747 -16.631865 -23.151505 -16.629742 -23.143278 -1.737473 141.44432
37580000000 -4.1189876 -176.93495 -16.584316 -23.627737 -16.584171 -23.561682 -1.7533431 141.04117
37590000000 -4.1180663 -177.48753 -16.566002 -23.728848 -16.542965 -23.844879 -1.7648807 140.63083
37600000000 -4.1189137 -178.01654 -16.530828 -24.214682 -16.513735 -24.225508 -1.7759463 140.21556
37610000000 -4.1176476 -178.57625 -16.489185 -24.63522 -16.480938 -24.619816 -1.7945741 139.74361
37620000000 -4.1234875 -179.17245 -16.449863 -25.001471 -16.437582 -25.028433 -1.8029053 139.32607
37630000000 -4.1189666 -179.75357 -16.389116 -25.379705 -16.388762 -25.426485 -1.8162087 138.86758
37640000000 -4.1227689 179.59601 -16.348333 -25.858194 -16.346018 -25.913395 -1.8329958 138.38045
37650000000 -4.1185179 178.99023 -16.311787 -26.260931 -16.303501 -26.366589 -1.8401334 137.91237
37660000000 -4.1187325 178.34969 -16.254246 -26.646946 -16.263432 -26.827526 -1.8529086 137.45311
37670000000 -4.1143088 177.68962 -16.228611 -27.222452 -16.222675 -27.292843 -1.8692771 136.99979
37680000000 -4.1048021 177.09409 -16.173347 -27.640226 -16.156654 -27.605381 -1.871037 136.57097
37690000000 -4.1003389 176.50146 -16.123272 -28.096882 -16.118999 -28.154039 -1.8816741 136.17194
37700000000 -4.0871944 175.92964 -16.077885 -28.461037 -16.074865 -28.648109 -1.887889 135.7709
37710000000 -4.0851426 175.40443 -16.024681 -29.134691 -16.02421 -29.06332 -1.9045025 135.37488
37720000000 -4.0682034 174.89792 -15.956923 -29.506048 -15.984798 -29.555492 -1.9099859 135.01483
37730000000 -4.0629191 174.38773 -15.910625 -30.015831 -15.932054 -30.205627 -1.9202701 134.62477
37740000000 -4.0574851 173.93098 -15.858781 -30.536991 -15.875341 -30.513533 -1.9404773 134.23082
37750000000 -4.057447 173.43944 -15.816227 -31.042828 -15.814882 -31.10865 -1.954523 133.8607
37760000000 -4.0587211 173.00835 -15.747616 -31.673941 -15.763593 -31.653242 -1.9787787 133.44879
37770000000 -4.0563459 172.54164 -15.696991 -32.174076 -15.722122 -32.044258 -1.9971691 133.08539
37780000000 -4.0640421 172.05298 -15.653111 -32.693428 -15.651716 -32.626877 -2.0140953 132.66566
37790000000 -4.0669889 171.57816 -15.592164 -33.218262 -15.59726 -33.292984 -2.0369368 132.27165
37800000000 -4.0711198 171.08603 -15.519543 -33.847897 -15.543576 -33.912178 -2.0518064 131.8004
37810000000 -4.0754018 170.58296 -15.489192 -34.49147 -15.490315 -34.487728 -2.0716038 131.42604
37820000000 -4.0788884 170.0833 -15.431415 -35.042236 -15.421379 -35.024689 -2.0851648 130.97836
37830000000 -4.0814896 169.57829 -15.373824 -35.724491 -15.372476 -35.619003 -2.0943463 130.5231
37840000000 -4.0786853 169.06328 -15.297111 -36.412598 -15.31565 -36.360855 -2.1138895 130.12363
37850000000 -4.0807714 168.58334 -15.249938 -36.98798 -15.24761 -36.989071 -2.125145 129.69943
37860000000 -4.0760756 168.10805 -15.207155 -37.641567 -15.196782 -37.709072 -2.1376305 129.33652
37870000000 -4.0771847 167.65471 -15.148607 -38.395844 -15.133198 -38.472511 -2.1550832 128.95343
37880000000 -4.0758538 167.18245 -15.097283 -39.030678 -15.087523 -38.973148 -2.1703653 128.56319
37890000000 -4.0800171 166.76036 -15.034828 -39.784256 -15.032587 -39.787098 -2.1803458 128.20775
37900000000 -4.077704 166.339 -14.969782 -40.277866 -14.969223 -40.396675 -2.1962392 127.85318
37910000000 -4.0751677 165.95538 -14.924116 -41.142033 -14.918511 -41.201107 -2.212966 127.52129
37920000000 -4.0805941 165.48749 -14.865131 -41.842819 -14.863819 -41.933617 -2.2296801 127.15669
37930000000 -4.0822988 165.09962 -14.80457 -42.597191 -14.818784 -42.738873 -2.2464929 126.79404
37940000000 -4.0854168 164.64157 -14.762072 -43.279037 -14.761963 -43.362103 -2.264535 126.44749
37950000000 -4.0913792 164.20558 -14.706422 -44.194454 -14.694906 -44.269199 -2.2790794 126.1055
37960000000 -4.0939412 163.80817 -14.644043 -44.841911 -14.6429 -44.867706 -2.2984605 125.7457
37970000000 -4.0933204 163.39003 -14.596981 -45.723118 -14.595852 -45.774548 -2.3090804 125.39897
37980000000 -4.0949531 162.93242 -14.529655 -46.428055 -14.545024 -46.51683 -2.327765 125.04135
37990000000 -4.091083 162.56989 -14.495127 -47.229988 -14.487341 -47.264236 -2.3398902 124.74599
38000000000 -4.09197 162.09192 -14.436139 -48.034538 -14.444576 -48.120541 -2.3546448 124.43247
38010000000 -4.083189 161.72972 -14.3767 -48.876347 -14.38288 -48.889397 -2.3620071 124.1335
38020000000 -4.0937386 161.32417 -14.313826 -49.638573 -14.320898 -49.674801 -2.3868637 123.83592
38030000000 -4.0743861 160.89436 -14.27658 -50.689289 -14.291318 -50.621799 -2.3955588 123.50033
38040000000 -4.0720816 160.53815 -14.216774 -51.497757 -14.224378 -51.521698 -2.42085 123.24203
38050000000 -4.0617223 160.14011 -14.178029 -52.26741 -14.179971 -52.284328 -2.4375522 122.93447
38060000000 -4.053956 159.79523 -14.128202 -53.248539 -14.142859 -53.234318 -2.456831 122.65198
38070000000 -4.0434732 159.42902 -14.074765 -54.025043 -14.079428 -54.038273 -2.4775465 122.3485
38080000000 -4.0340409 159.14345 -14.033359 -54.974915 -14.034492 -55.045792 -2.4929986 122.0348
38090000000 -4.0192595 158.8045 -13.994789 -55.840004 -13.985535 -55.884769 -2.5166962 121.68211
38100000000 -4.015831 158.48296 -13.947883 -56.847664 -13.954878 -56.835487 -2.5263445 121.38557
38110000000 -4.0049744 158.18179 -13.900526 -57.652161 -13.891062 -57.665527 -2.5448704 121.05505
38120000000 -3.9958944 157.87636 -13.847095 -58.692471 -13.85806 -58.627052 -2.5571177 120.70899
38130000000 -3.9859817 157.58507 -13.812988 -59.445194 -13.821208 -59.537884 -2.5689249 120.39035
38140000000 -3.9779525 157.32399 -13.783336 -60.499912 -13.773189 -60.518406 -2.5759997 120.10195
38150000000 -3.9772115 156.97739 -13.733204 -61.358601 -13.736073 -61.411446 -2.5829327 119.78848
38160000000 -3.9652503 156.63818 -13.698501 -62.44445 -13.690493 -62.436626 -2.5854294 119.54257
38170000000 -3.9635985 156.30524 -13.666582 -63.390003 -13.664547 -63.446339 -2.6009977 119.24529
38180000000 -3.953985 155.95053 -13.624359 -64.344673 -13.639359 -64.407181 -2.6041877 118.99332
38190000000 -3.9333413 155.5981 -13.590111 -65.29879 -13.589383 -65.367035 -2.611913 118.71981
38200000000 -3.9237144 155.23708 -13.548957 -66.351685 -13.557376 -66.386497 -2.6183951 118.47707
38210000000 -3.9120948 154.88695 -13.538994 -67.166542 -13.533221 -67.341591 -2.6271749 118.22496
38220000000 -3.888984 154.5759 -13.499926 -68.241966 -13.505338 -68.288597 -2.637918 118.0378
38230000000 -3.8722672 154.22424 -13.461326 -69.245659 -13.467428 -69.17646 -2.6458607 117.7879
38240000000 -3.8459275 153.88567 -13.447024 -70.296951 -13.455605 -70.249184 -2.6554317 117.52987
38250000000 -3.8278732 153.57446 -13.412685 -71.243454 -13.417039 -71.346558 -2.6591661 117.30952
38260000000 -3.802351 153.27026 -13.386549 -72.295418 -13.391082 -72.325378 -2.6635916 117.02673
38270000000 -3.7789724 152.97949 -13.358663 -73.283859 -13.365237 -73.321915 -2.6706564 116.75433
38280000000 -3.761797 152.68445 -13.335258 -74.269203 -13.346374 -74.356491 -2.6751213 116.50724
38290000000 -3.7370822 152.41557 -13.303428 -75.295914 -13.308756 -75.339828 -2.6737375 116.28336
38300000000 -3.7230175 152.07042 -13.300091 -76.29306 -13.300996 -76.34745 -2.6757329 116.02219
38310000000 -3.7038393 151.76125 -13.274271 -77.401001 -13.271739 -77.376648 -2.6762736 115.80333
38320000000 -3.6853936 151.43341 -13.266814 -78.364975 -13.259569 -78.322472 -2.6792786 115.56613
38330000000 -3.6689882 151.10786 -13.239568 -79.408577 -13.248094 -79.453438 -2.6754396 115.33851
38340000000 -3.6447487 150.72733 -13.225907 -80.433342 -13.229247 -80.455444 -2.6788251 115.12067
38350000000 -3.6257751 150.36699 -13.208267 -81.522606 -13.212303 -81.453117 -2.6778343 114.89351
38360000000 -3.6051536 149.93886 -13.201054 -82.521126 -13.200098 -82.58577 -2.6777725 114.62659
38370000000 -3.5833988 149.60004 -13.191439 -83.617371 -13.193674 -83.61319 -2.6740043 114.41991
38380000000 -3.5482547 149.18596 -13.167352 -84.651146 -13.178812 -84.667015 -2.6776483 114.11156
38390000000 -3.5211341 148.73044 -13.175291 -85.686798 -13.180754 -85.716064 -2.6776948 113.87133
38400000000 -3.5006452 148.28577 -13.179503 -86.809624 -13.177948 -86.818947 -2.6682081 113.54926
38410000000 -3.4615674 147.94499 -13.16916 -87.78418 -13.164623 -87.843529 -2.666229 113.29617
38420000000 -3.4337034 147.55948 -13.164446 -88.725945 -13.172485 -88.734619 -2.6604824 113.01942
38430000000 -3.4055805 147.11708 -13.167214 -89.832359 -13.162543 -89.877678 -2.6494861 112.74115
38440000000 -3.3699067 146.72751 -13.172041 -90.87989 -13.178051 -90.944763 -2.6440308 112.48266
38450000000 -3.3391323 146.36739 -13.180806 -91.952179 -13.164582 -91.996811 -2.6335618 112.21221
38460000000 -3.3023751 145.94763 -13.167886 -92.915222 -13.167918 -92.997147 -2.6281314 111.98271
38470000000 -3.2723243 145.62411 -13.163633 -93.911697 -13.168408 -94.064011 -2.6126764 111.7899
38480000000 -3.2393391 145.24736 -13.170266 -94.98629 -13.170867 -95.051849 -2.6036305 111.45254
38490000000 -3.2019598 144.83549 -13.174868 -96.023544 -13.172917 -96.04425 -2.5995393 111.18684
38500000000 -3.1743996 144.51718 -13.18117 -97.068741 -13.175113 -97.058662 -2.5855501 110.95409
38510000000 -3.15062 144.10487 -13.178814 -97.94281 -13.191746 -98.035446 -2.5895247 110.69022
38520000000 -3.1214027 143.71071 -13.199074 -99.031593 -13.200366 -99.056541 -2.5780149 110.41405
38530000000 -3.0873778 143.25244 -13.199806 -100.09555 -13.199886 -100.07549 -2.5705788 110.12332
38540000000 -3.0534344 142.87154 -13.211753 -101.08997 -13.204183 -101.10097 -2.5599992 109.79493
38550000000 -3.0244541 142.47482 -13.231406 -102.03218 -13.225747 -102.2223 -2.5470626 109.44279
38560000000 -3.0024724 142.00623 -13.224322 -103.08165 -13.254136 -103.15396 -2.5382595 109.12562
38570000000 -2.9676034 141.6736 -13.240232 -104.06862 -13.248048 -104.12419 -2.5172243 108.84261
38580000000 -2.9388201 141.20261 -13.251236 -105.15728 -13.253141 -105.09087 -2.5067115 108.48108
38590000000 -2.9051666 140.77548 -13.276545 -106.04688 -13.278271 -106.16769 -2.4975348 108.18706
38600000000 -2.8786523 140.39775 -13.286101 -107.07153 -13.292796 -107.11626 -2.4749258 107.83511
38610000000 -2.8441772 139.99516 -13.315069 -108.03665 -13.311657 -108.08458 -2.4577951 107.59089
38620000000 -2.8137488 139.65479 -13.322572 -108.9253 -13.326948 -108.93489 -2.4398644 107.28519
38630000000 -2.7919626 139.16862 -13.344902 -109.9558 -13.34137 -109.91325 -2.4254222 107.00151
38640000000 -2.7596705 138.7744 -13.357678 -110.93974 -13.350063 -111.03223 -2.4153495 106.64381
38650000000 -2.7489405 138.37523 -13.370184 -111.91787 -13.39326 -111.97614 -2.3977232 106.32432
38660000000 -2.7270586 137.88869 -13.400993 -112.85959 -13.396496 -112.90168 -2.3886464 106.07165
38670000000 -2.7083263 137.4879 -13.415181 -113.76433 -13.413663 -113.82104 -2.3683012 105.70708
38680000000 -2.6896935 136.95245 -13.446228 -114.79902 -13.432526 -114.79895 -2.3612263 105.38419
38690000000 -2.6748166 136.48351 -13.466085 -115.69351 -13.466207 -115.7473 -2.3491073 105.01502
38700000000 -2.6555233 135.94054 -13.482651 -116.61764 -13.488386 -116.74483 -2.3316181 104.63167
38710000000 -2.6268363 135.34233 -13.501705 -117.62482 -13.493716 -117.6943 -2.3172607 104.35451
38720000000 -2.6004786 134.87634 -13.5198 -118.50217 -13.514994 -118.61478 -2.3021574 103.98142
38730000000 -2.5747736 134.38913 -13.540633 -119.43391 -13.542982 -119.49209 -2.2878048 103.64165
38740000000 -2.5415685 133.81419 -13.567677 -120.39989 -13.559042 -120.48116 -2.2682638 103.28539
38750000000 -2.527226 133.25822 -13.598756 -121.33784 -13.589542 -121.39931 -2.2569268 102.96297
38760000000 -2.4907839 132.75856 -13.61064 -122.20869 -13.61772 -122.23669 -2.2417524 102.61214
38770000000 -2.4692481 132.25517 -13.647016 -123.13736 -13.646842 -123.18034 -2.2359679 102.27614
38780000000 -2.4504216 131.79111 -13.674163 -123.93399 -13.681944 -124.11439 -2.2233195 101.92765
38790000000 -2.4223166 131.37796 -13.694651 -124.90611 -13.69687 -125.05392 -2.2095215 101.46724
38800000000 -2.3933249 130.80934 -13.723166 -125.80746 -13.715956 -125.89274 -2.1968231 101.16092
38810000000 -2.3680277 130.35524 -13.741917 -126.61335 -13.736866 -126.78393 -2.1832831 100.73277
38820000000 -2.3442771 129.83635 -13.790407 -127.62271 -13.771986 -127.72518 -2.173048 100.33068
38830000000 -2.327327 129.32362 -13.806458 -128.49451 -13.805715 -128.54871 -2.1477413 100.00639
38840000000 -2.2969234 128.81583 -13.815495 -129.39305 -13.8335 -129.44424 -2.129977 99.591507
38850000000 -2.2824636 128.32805 -13.853893 -130.25665 -13.860432 -130.3568 -2.1166129 99.177483
38860000000 -2.2505305 127.86891 -13.883827 -131.06485 -13.896423 -131.21584 -2.1078947 98.799599
38870000000 -2.229892 127.37877 -13.913674 -132.01639 -13.904478 -131.97734 -2.0921218 98.498535
38880000000 -2.2069261 126.88403 -13.949339 -132.77708 -13.939813 -132.84015 -2.0711412 98.111023
38890000000 -2.191421 126.37241 -13.972031 -133.72099 -13.97404 -133.81432 -2.0588007 97.698257
38900000000 -2.1699514 125.91206 -13.989583 -134.3401 -13.993139 -134.57671 -2.0399234 97.490547
38910000000 -2.1527903 125.45216 -14.021733 -135.2901 -14.033223 -135.40395 -2.0418692 97.086365
38920000000 -2.1308327 124.89809 -14.049129 -136.24428 -14.055897 -136.27371 -2.0201392 96.786621
38930000000 -2.1138189 124.34988 -14.078422 -137.04944 -14.096712 -137.09248 -2.0290687 96.404732
38940000000 -2.0942388 123.92784 -14.080139 -137.87958 -14.087711 -137.98706 -2.0044441 96.010109
38950000000 -2.0823967 123.36857 -14.135476 -138.84238 -14.138256 -138.84514 -2.0156918 95.598488
38960000000 -2.0577154 122.90912 -14.13348 -139.48186 -14.154198 -139.68781 -1.9954832 95.223114
38970000000 -2.0473099 122.4268 -14.18107 -140.45734 -14.176437 -140.43568 -1.9972421 94.773163
38980000000 -2.0226178 122.00436 -14.195219 -141.1281 -14.206538 -141.22781 -1.995611 94.348183
38990000000 -2.0170264 121.51295 -14.225062 -142.06187 -14.227431 -142.05019 -1.9838805 93.882484
39000000000 -1.9986224 121.08221 -14.258018 -142.80821 -14.258511 -142.8652 -1.9763209 93.445724
39010000000 -1.9829643 120.56361 -14.284367 -143.62651 -14.260861 -143.67134 -1.973134 92.98925
39020000000 -1.9842104 120.10467 -14.307579 -144.51259 -14.305905 -144.44423 -1.9602829 92.443123
39030000000 -1.9763062 119.56734 -14.32082 -145.27708 -14.319414 -145.26683 -1.936217 92.022789
39040000000 -1.9743713 119.01677 -14.361535 -146.14761 -14.352922 -146.06978 -1.9315027 91.566231
39050000000 -1.9608943 118.45303 -14.3794 -146.89064 -14.37464 -146.89281 -1.915265 91.066299
39060000000 -1.9544897 117.93338 -14.410693 -147.6357 -14.40535 -147.73547 -1.899184 90.571129
39070000000 -1.9479476 117.27055 -14.436266 -148.56145 -14.429705 -148.62288 -1.8856367 90.224228
39080000000 -1.9374259 116.66682 -14.465502 -149.32977 -14.464861 -149.38873 -1.8771491 89.794708
39090000000 -1.9210137 116.13502 -14.485303 -150.0188 -14.499455 -150.15506 -1.8540915 89.478256
39100000000 -1.8980658 115.55381 -14.508329 -150.85655 -14.510517 -150.86676 -1.8298267 89.106316
39110000000 -1.8721766 115.05239 -14.548368 -151.61369 -14.546635 -151.73901 -1.8374753 88.670609
39120000000 -1.8619153 114.43182 -14.57396 -152.45602 -14.5643 -152.48569 -1.821923 88.358261
39130000000 -1.8437247 113.94347 -14.598376 -153.18051 -14.605724 -153.23184 -1.8192103 87.989777
39140000000 -1.8228493 113.47518 -14.617269 -153.95332 -14.616974 -154.02701 -1.8085444 87.5541
39150000000 -1.8099591 112.94881 -14.634695 -154.80409 -14.648033 -154.82938 -1.8034891 87.171822
39160000000 -1.8043251 112.45429 -14.673368 -155.4832 -14.682333 -155.50185 -1.7969195 86.847801
39170000000 -1.797387 111.99306 -14.69474 -156.20021 -14.696146 -156.19872 -1.7944586 86.423836
39180000000 -1.7919723 111.44541 -14.726661 -157.04005 -14.730721 -157.04561 -1.7985183 85.966072
39190000000 -1.7751487 110.90746 -14.746337 -157.7674 -14.747195 -157.81963 -1.7898664 85.537827
39200000000 -1.7755831 110.37353 -14.779634 -158.5441 -14.779807 -158.52225 -1.7772505 85.144196
39210000000 -1.7658831 109.75558 -14.790315 -159.11937 -14.793756 -159.33524 -1.7760004 84.750481
39220000000 -1.7431362 109.20141 -14.842907 -160.01073 -14.818862 -160.15514 -1.7779326 84.287132
39230000000 -1.7279363 108.65347 -14.832196 -160.76205 -14.846054 -160.79843 -1.768859 83.917847
39240000000 -1.706986 108.14749 -14.853184 -161.44572 -14.872691 -161.63429 -1.7706445 83.460152
39250000000 -1.6897677 107.6711 -14.888699 -162.32059 -14.895411 -162.32292 -1.7559642 82.974136
39260000000 -1.681784 107.18744 -14.928266 -163.02071 -14.926263 -163.0724 -1.7630203 82.613541
39270000000 -1.6632668 106.77811 -14.924907 -163.71213 -14.934278 -163.7363 -1.7466503 82.19368
39280000000 -1.6378421 106.35007 -14.966599 -164.48015 -14.942555 -164.46315 -1.7446588 81.76432
39290000000 -1.6366366 105.91255 -14.978079 -165.12959 -14.974846 -165.15088 -1.7393175 81.318108
39300000000 -1.6397606 105.48398 -15.021032 -165.86948 -15.014643 -165.88199 -1.7441057 80.816925
39310000000 -1.6219105 105.114 -15.012187 -166.54103 -15.033687 -166.62625 -1.7441607 80.382759
39320000000 -1.6249835 104.64255 -15.042546 -167.24777 -15.039978 -167.3488 -1.7323265 79.973656
39330000000 -1.6218258 104.15046 -15.050474 -168.03642 -15.050397 -168.08414 -1.7353561 79.414146
39340000000 -1.6353045 103.67688 -15.102614 -168.77092 -15.084234 -168.69827 -1.7417778 79.004471
39350000000 -1.624202 103.16447 -15.099568 -169.53284 -15.098787 -169.55882 -1.7278897 78.509949
39360000000 -1.6327518 102.5889 -15.122877 -170.15892 -15.11437 -170.27594 -1.7189292 78.060257
39370000000 -1.6231618 102.05656 -15.144823 -170.98543 -15.133807 -171.02092 -1.7175819 77.538132
39380000000 -1.6166413 101.58831 -15.184754 -171.50893 -15.158051 -171.51324 -1.7133325 77.180077
39390000000 -1.6026804 101.0787 -15.158807 -172.34741 -15.180537 -172.25824 -1.702273 76.708031
39400000000 -1.6001776 100.53344 -15.194927 -173.09764 -15.199771 -173.1432 -1.690539 76.265205
39410000000 -1.6005244 99.990807 -15.216696 -173.84354 -15.206937 -173.79097 -1.6842196 75.839516
39420000000 -1.5910512 99.459587 -15.24318 -174.57747 -15.242058 -174.59686 -1.6798178 75.398804
39430000000 -1.5780216 98.98011 -15.235379 -175.0748 -15.253796 -175.31786 -1.6709429 75.051895
39440000000 -1.5746326 98.384521 -15.247132 -176.00508 -15.249519 -176.07129 -1.6642569 74.670883
39450000000 -1.5670667 97.934395 -15.29428 -176.64211 -15.283952 -176.71927 -1.6670923 74.19471
39460000000 -1.5651703 97.449272 -15.320605 -177.33076 -15.302296 -177.33076 -1.6738824 73.79615
39470000000 -1.5649539 96.947426 -15.314866 -177.98209 -15.315073 -178.02762 -1.6694679 73.37336
39480000000 -1.5472693 96.431503 -15.33497 -178.76114 -15.319286 -178.71927 -1.6685141 72.988434
39490000000 -1.543485 95.907494 -15.334709 -179.31737 -15.336141 -179.45348 -1.6486253 72.554634
39500000000 -1.5389252 95.424789 -15.36828 179.87785 -15.361952 179.7605 -1.6644214 72.097107
39510000000 -1.5321648 94.931129 -15.370829 179.18468 -15.380695 179.15524 -1.6577379 71.681206
39520000000 -1.5319512 94.406326 -15.377163 178.49942 -15.392708 178.31323 -1.6596555 71.187965
39530000000 -1.5223534 93.992981 -15.419772 177.7589 -15.418097 177.78024 -1.6674682 70.786949
39540000000 -1.5215118 93.433937 -15.412812 177.14024 -15.424756 177.09373 -1.6541917 70.334045
39550000000 -1.5140631 92.9888 -15.428543 176.41272 -15.413395 176.43408 -1.6426125 69.875923
39560000000 -1.510518 92.500893 -15.45783 175.7915 -15.462095 175.82358 -1.6599983 69.467857
39570000000 -1.5135429 91.938667 -15.443282 174.97678 -15.460138 174.95949 -1.6334146 69.053375
39580000000 -1.5114396 91.470886 -15.452241 174.52148 -15.469096 174.35959 -1.6347526 68.656082
39590000000 -1.4977436 90.964043 -15.486975 173.61246 -15.475924 173.56851 -1.6416351 68.191711
39600000000 -1.5022933 90.455208 -15.502333 172.92822 -15.500913 172.87613 -1.6391697 67.820694
39610000000 -1.491259 90.002998 -15.506767 172.31223 -15.515467 172.26393 -1.6435077 67.39328
39620000000 -1.4774092 89.56144 -15.51218 171.681 -15.51438 171.70509 -1.6307052 67.048744
39630000000 -1.4733626 89.110207 -15.514778 171.02289 -15.52177 170.96869 -1.6426008 66.655609
39640000000 -1.4716374 88.656021 -15.532842 170.2885 -15.532949 170.29646 -1.6504059 66.221794
39650000000 -1.4693375 88.239761 -15.537794 169.74634 -15.547205 169.63542 -1.6470735 65.797256
39660000000 -1.4681053 87.82724 -15.554461 168.88029 -15.548295 168.96989 -1.6629794 65.362938
39670000000 -1.4673257 87.34211 -15.548077 168.29814 -15.547682 168.12961 -1.6691166 64.831528
39680000000 -1.4754931 86.920921 -15.559397 167.68398 -15.566031 167.60196 -1.6722028 64.32267
39690000000 -1.480709 86.449928 -15.573539 166.87428 -15.574896 166.7829 -1.6802896 63.830914
39700000000 -1.4863671 85.920738 -15.571934 166.07182 -15.55897 166.0854 -1.6745629 63.318123
39710000000 -1.4824811 85.365608 -15.558248 165.47209 -15.553061 165.33237 -1.6699371 62.789917
39720000000 -1.5010456 84.800766 -15.591348 164.68791 -15.60111 164.68549 -1.6807985 62.332176
39730000000 -1.4970807 84.320313 -15.595217 164.1044 -15.604498 164.07605 -1.6748872 61.874516
39740000000 -1.4856608 83.791283 -15.58804 163.40181 -15.576981 163.33794 -1.6603216 61.387974
39750000000 -1.4840182 83.298714 -15.597783 162.6678 -15.589299 162.6898 -1.6613313 60.93763
39760000000 -1.4827725 82.802261 -15.597619 162.13634 -15.608976 162.13194 -1.6548147 60.510353
39770000000 -1.47469 82.263039 -15.610935 161.38425 -15.635411 161.27139 -1.6615988 60.05957
39780000000 -1.4596761 81.782043 -15.638504 160.80879 -15.614028 160.65938 -1.662416 59.592487
39790000000 -1.4555573 81.429703 -15.623642 160.0632 -15.619048 160.08777 -1.6607066 59.216694
39800000000 -1.4570653 80.987595 -15.62456 159.48441 -15.609927 159.36221 -1.6531689 58.801781
39810000000 -1.4478732 80.536247 -15.638806 158.57056 -15.618525 158.62691 -1.6710684 58.292713
39820000000 -1.4563471 80.086823 -15.651915 158.03746 -15.636613 158.01614 -1.6649903 57.859661
39830000000 -1.4545599 79.598518 -15.664304 157.45834 -15.655784 157.34808 -1.6695884 57.457985
39840000000 -1.4605845 79.164429 -15.658785 156.64349 -15.638945 156.77893 -1.678936 57.042801
39850000000 -1.4574727 78.713966 -15.6487 155.95255 -15.64309 155.98526 -1.6740056 56.540863
39860000000 -1.4643135 78.261925 -15.629597 155.42209 -15.645948 155.32854 -1.6654283 56.056034
39870000000 -1.4572808 77.786957 -15.646702 154.70119 -15.658427 154.64711 -1.6757503 55.695488
39880000000 -1.4655087 77.30825 -15.640312 154.07326 -15.641557 153.88361 -1.6649899 55.2649
39890000000 -1.4667091 76.841026 -15.638736 153.30243 -15.671704 153.25307 -1.6681758 54.825024
39900000000 -1.4631147 76.365692 -15.646782 152.72176 -15.652772 152.59648 -1.6609124 54.445507
39910000000 -1.4624144 75.877571 -15.652452 152.06651 -15.664009 152.01132 -1.6655852 54.101189
39920000000 -1.4660162 75.443947 -15.662497 151.49623 -15.652431 151.40869 -1.6684716 53.716896
39930000000 -1.4650995 75.030281 -15.633169 150.65338 -15.633416 150.77637 -1.6661288 53.322811
39940000000 -1.46241 74.585732 -15.646217 150.10738 -15.626457 149.9745 -1.680802 52.934753
39950000000 -1.4589003 74.078682 -15.623447 149.35706 -15.635359 149.41624 -1.6939632 52.493965
39960000000 -1.4618953 73.545753 -15.634881 148.5343 -15.620768 148.55486 -1.7040912 52.009457
39970000000 -1.4643074 73.170517 -15.623989 148.02081 -15.623705 147.85916 -1.7298623 51.598335
39980000000 -1.4662589 72.670685 -15.609268 147.18097 -15.623804 147.13634 -1.739989 51.060577
39990000000 -1.4700444 72.250893 -15.632034 146.58995 -15.620605 146.40222 -1.7513598 50.537136
40000000000 -1.4698232 71.765411 -15.598767 145.83336 -15.601847 145.80379 -1.7523537 50.042793
